p cnf 5914 19661
1 2 3 4 5 6 7 8 9 10 11 12 13 14 15 16 17 18 0
19 20 21 22 23 24 25 26 27 28 29 30 31 32 33 34 35 36 0
37 38 39 40 41 42 43 44 45 46 47 48 49 50 51 52 53 54 0
55 56 57 58 59 60 61 62 63 64 65 66 67 68 69 70 71 72 0
73 74 75 76 77 78 79 80 81 82 83 84 85 86 87 88 89 90 0
91 92 93 94 95 96 97 98 99 100 101 102 103 104 105 106 107 108 0
109 110 111 112 113 114 115 116 117 118 119 120 121 122 123 124 125 126 0
127 128 129 130 131 132 133 134 135 136 137 138 139 140 141 142 143 144 0
145 146 147 148 149 150 151 152 153 154 155 156 157 158 159 160 161 162 0
163 164 165 166 167 168 169 170 171 172 173 174 175 176 177 178 179 180 0
-1 -2 0
-1 -3 0
-1 -4 0
-1 -5 0
-1 -6 0
-1 -7 0
-1 -8 0
-1 -9 0
-1 -10 0
-1 -11 0
-1 -12 0
-1 -13 0
-1 -14 0
-1 -15 0
-1 -16 0
-1 -17 0
-1 -18 0
-2 -3 0
-2 -4 0
-2 -5 0
-2 -6 0
-2 -7 0
-2 -8 0
-2 -9 0
-2 -10 0
-2 -11 0
-2 -12 0
-2 -13 0
-2 -14 0
-2 -15 0
-2 -16 0
-2 -17 0
-2 -18 0
-3 -4 0
-3 -5 0
-3 -6 0
-3 -7 0
-3 -8 0
-3 -9 0
-3 -10 0
-3 -11 0
-3 -12 0
-3 -13 0
-3 -14 0
-3 -15 0
-3 -16 0
-3 -17 0
-3 -18 0
-4 -5 0
-4 -6 0
-4 -7 0
-4 -8 0
-4 -9 0
-4 -10 0
-4 -11 0
-4 -12 0
-4 -13 0
-4 -14 0
-4 -15 0
-4 -16 0
-4 -17 0
-4 -18 0
-5 -6 0
-5 -7 0
-5 -8 0
-5 -9 0
-5 -10 0
-5 -11 0
-5 -12 0
-5 -13 0
-5 -14 0
-5 -15 0
-5 -16 0
-5 -17 0
-5 -18 0
-6 -7 0
-6 -8 0
-6 -9 0
-6 -10 0
-6 -11 0
-6 -12 0
-6 -13 0
-6 -14 0
-6 -15 0
-6 -16 0
-6 -17 0
-6 -18 0
-7 -8 0
-7 -9 0
-7 -10 0
-7 -11 0
-7 -12 0
-7 -13 0
-7 -14 0
-7 -15 0
-7 -16 0
-7 -17 0
-7 -18 0
-8 -9 0
-8 -10 0
-8 -11 0
-8 -12 0
-8 -13 0
-8 -14 0
-8 -15 0
-8 -16 0
-8 -17 0
-8 -18 0
-9 -10 0
-9 -11 0
-9 -12 0
-9 -13 0
-9 -14 0
-9 -15 0
-9 -16 0
-9 -17 0
-9 -18 0
-10 -11 0
-10 -12 0
-10 -13 0
-10 -14 0
-10 -15 0
-10 -16 0
-10 -17 0
-10 -18 0
-11 -12 0
-11 -13 0
-11 -14 0
-11 -15 0
-11 -16 0
-11 -17 0
-11 -18 0
-12 -13 0
-12 -14 0
-12 -15 0
-12 -16 0
-12 -17 0
-12 -18 0
-13 -14 0
-13 -15 0
-13 -16 0
-13 -17 0
-13 -18 0
-14 -15 0
-14 -16 0
-14 -17 0
-14 -18 0
-15 -16 0
-15 -17 0
-15 -18 0
-16 -17 0
-16 -18 0
-17 -18 0
-19 -20 0
-19 -21 0
-19 -22 0
-19 -23 0
-19 -24 0
-19 -25 0
-19 -26 0
-19 -27 0
-19 -28 0
-19 -29 0
-19 -30 0
-19 -31 0
-19 -32 0
-19 -33 0
-19 -34 0
-19 -35 0
-19 -36 0
-20 -21 0
-20 -22 0
-20 -23 0
-20 -24 0
-20 -25 0
-20 -26 0
-20 -27 0
-20 -28 0
-20 -29 0
-20 -30 0
-20 -31 0
-20 -32 0
-20 -33 0
-20 -34 0
-20 -35 0
-20 -36 0
-21 -22 0
-21 -23 0
-21 -24 0
-21 -25 0
-21 -26 0
-21 -27 0
-21 -28 0
-21 -29 0
-21 -30 0
-21 -31 0
-21 -32 0
-21 -33 0
-21 -34 0
-21 -35 0
-21 -36 0
-22 -23 0
-22 -24 0
-22 -25 0
-22 -26 0
-22 -27 0
-22 -28 0
-22 -29 0
-22 -30 0
-22 -31 0
-22 -32 0
-22 -33 0
-22 -34 0
-22 -35 0
-22 -36 0
-23 -24 0
-23 -25 0
-23 -26 0
-23 -27 0
-23 -28 0
-23 -29 0
-23 -30 0
-23 -31 0
-23 -32 0
-23 -33 0
-23 -34 0
-23 -35 0
-23 -36 0
-24 -25 0
-24 -26 0
-24 -27 0
-24 -28 0
-24 -29 0
-24 -30 0
-24 -31 0
-24 -32 0
-24 -33 0
-24 -34 0
-24 -35 0
-24 -36 0
-25 -26 0
-25 -27 0
-25 -28 0
-25 -29 0
-25 -30 0
-25 -31 0
-25 -32 0
-25 -33 0
-25 -34 0
-25 -35 0
-25 -36 0
-26 -27 0
-26 -28 0
-26 -29 0
-26 -30 0
-26 -31 0
-26 -32 0
-26 -33 0
-26 -34 0
-26 -35 0
-26 -36 0
-27 -28 0
-27 -29 0
-27 -30 0
-27 -31 0
-27 -32 0
-27 -33 0
-27 -34 0
-27 -35 0
-27 -36 0
-28 -29 0
-28 -30 0
-28 -31 0
-28 -32 0
-28 -33 0
-28 -34 0
-28 -35 0
-28 -36 0
-29 -30 0
-29 -31 0
-29 -32 0
-29 -33 0
-29 -34 0
-29 -35 0
-29 -36 0
-30 -31 0
-30 -32 0
-30 -33 0
-30 -34 0
-30 -35 0
-30 -36 0
-31 -32 0
-31 -33 0
-31 -34 0
-31 -35 0
-31 -36 0
-32 -33 0
-32 -34 0
-32 -35 0
-32 -36 0
-33 -34 0
-33 -35 0
-33 -36 0
-34 -35 0
-34 -36 0
-35 -36 0
-37 -38 0
-37 -39 0
-37 -40 0
-37 -41 0
-37 -42 0
-37 -43 0
-37 -44 0
-37 -45 0
-37 -46 0
-37 -47 0
-37 -48 0
-37 -49 0
-37 -50 0
-37 -51 0
-37 -52 0
-37 -53 0
-37 -54 0
-38 -39 0
-38 -40 0
-38 -41 0
-38 -42 0
-38 -43 0
-38 -44 0
-38 -45 0
-38 -46 0
-38 -47 0
-38 -48 0
-38 -49 0
-38 -50 0
-38 -51 0
-38 -52 0
-38 -53 0
-38 -54 0
-39 -40 0
-39 -41 0
-39 -42 0
-39 -43 0
-39 -44 0
-39 -45 0
-39 -46 0
-39 -47 0
-39 -48 0
-39 -49 0
-39 -50 0
-39 -51 0
-39 -52 0
-39 -53 0
-39 -54 0
-40 -41 0
-40 -42 0
-40 -43 0
-40 -44 0
-40 -45 0
-40 -46 0
-40 -47 0
-40 -48 0
-40 -49 0
-40 -50 0
-40 -51 0
-40 -52 0
-40 -53 0
-40 -54 0
-41 -42 0
-41 -43 0
-41 -44 0
-41 -45 0
-41 -46 0
-41 -47 0
-41 -48 0
-41 -49 0
-41 -50 0
-41 -51 0
-41 -52 0
-41 -53 0
-41 -54 0
-42 -43 0
-42 -44 0
-42 -45 0
-42 -46 0
-42 -47 0
-42 -48 0
-42 -49 0
-42 -50 0
-42 -51 0
-42 -52 0
-42 -53 0
-42 -54 0
-43 -44 0
-43 -45 0
-43 -46 0
-43 -47 0
-43 -48 0
-43 -49 0
-43 -50 0
-43 -51 0
-43 -52 0
-43 -53 0
-43 -54 0
-44 -45 0
-44 -46 0
-44 -47 0
-44 -48 0
-44 -49 0
-44 -50 0
-44 -51 0
-44 -52 0
-44 -53 0
-44 -54 0
-45 -46 0
-45 -47 0
-45 -48 0
-45 -49 0
-45 -50 0
-45 -51 0
-45 -52 0
-45 -53 0
-45 -54 0
-46 -47 0
-46 -48 0
-46 -49 0
-46 -50 0
-46 -51 0
-46 -52 0
-46 -53 0
-46 -54 0
-47 -48 0
-47 -49 0
-47 -50 0
-47 -51 0
-47 -52 0
-47 -53 0
-47 -54 0
-48 -49 0
-48 -50 0
-48 -51 0
-48 -52 0
-48 -53 0
-48 -54 0
-49 -50 0
-49 -51 0
-49 -52 0
-49 -53 0
-49 -54 0
-50 -51 0
-50 -52 0
-50 -53 0
-50 -54 0
-51 -52 0
-51 -53 0
-51 -54 0
-52 -53 0
-52 -54 0
-53 -54 0
-55 -56 0
-55 -57 0
-55 -58 0
-55 -59 0
-55 -60 0
-55 -61 0
-55 -62 0
-55 -63 0
-55 -64 0
-55 -65 0
-55 -66 0
-55 -67 0
-55 -68 0
-55 -69 0
-55 -70 0
-55 -71 0
-55 -72 0
-56 -57 0
-56 -58 0
-56 -59 0
-56 -60 0
-56 -61 0
-56 -62 0
-56 -63 0
-56 -64 0
-56 -65 0
-56 -66 0
-56 -67 0
-56 -68 0
-56 -69 0
-56 -70 0
-56 -71 0
-56 -72 0
-57 -58 0
-57 -59 0
-57 -60 0
-57 -61 0
-57 -62 0
-57 -63 0
-57 -64 0
-57 -65 0
-57 -66 0
-57 -67 0
-57 -68 0
-57 -69 0
-57 -70 0
-57 -71 0
-57 -72 0
-58 -59 0
-58 -60 0
-58 -61 0
-58 -62 0
-58 -63 0
-58 -64 0
-58 -65 0
-58 -66 0
-58 -67 0
-58 -68 0
-58 -69 0
-58 -70 0
-58 -71 0
-58 -72 0
-59 -60 0
-59 -61 0
-59 -62 0
-59 -63 0
-59 -64 0
-59 -65 0
-59 -66 0
-59 -67 0
-59 -68 0
-59 -69 0
-59 -70 0
-59 -71 0
-59 -72 0
-60 -61 0
-60 -62 0
-60 -63 0
-60 -64 0
-60 -65 0
-60 -66 0
-60 -67 0
-60 -68 0
-60 -69 0
-60 -70 0
-60 -71 0
-60 -72 0
-61 -62 0
-61 -63 0
-61 -64 0
-61 -65 0
-61 -66 0
-61 -67 0
-61 -68 0
-61 -69 0
-61 -70 0
-61 -71 0
-61 -72 0
-62 -63 0
-62 -64 0
-62 -65 0
-62 -66 0
-62 -67 0
-62 -68 0
-62 -69 0
-62 -70 0
-62 -71 0
-62 -72 0
-63 -64 0
-63 -65 0
-63 -66 0
-63 -67 0
-63 -68 0
-63 -69 0
-63 -70 0
-63 -71 0
-63 -72 0
-64 -65 0
-64 -66 0
-64 -67 0
-64 -68 0
-64 -69 0
-64 -70 0
-64 -71 0
-64 -72 0
-65 -66 0
-65 -67 0
-65 -68 0
-65 -69 0
-65 -70 0
-65 -71 0
-65 -72 0
-66 -67 0
-66 -68 0
-66 -69 0
-66 -70 0
-66 -71 0
-66 -72 0
-67 -68 0
-67 -69 0
-67 -70 0
-67 -71 0
-67 -72 0
-68 -69 0
-68 -70 0
-68 -71 0
-68 -72 0
-69 -70 0
-69 -71 0
-69 -72 0
-70 -71 0
-70 -72 0
-71 -72 0
-73 -74 0
-73 -75 0
-73 -76 0
-73 -77 0
-73 -78 0
-73 -79 0
-73 -80 0
-73 -81 0
-73 -82 0
-73 -83 0
-73 -84 0
-73 -85 0
-73 -86 0
-73 -87 0
-73 -88 0
-73 -89 0
-73 -90 0
-74 -75 0
-74 -76 0
-74 -77 0
-74 -78 0
-74 -79 0
-74 -80 0
-74 -81 0
-74 -82 0
-74 -83 0
-74 -84 0
-74 -85 0
-74 -86 0
-74 -87 0
-74 -88 0
-74 -89 0
-74 -90 0
-75 -76 0
-75 -77 0
-75 -78 0
-75 -79 0
-75 -80 0
-75 -81 0
-75 -82 0
-75 -83 0
-75 -84 0
-75 -85 0
-75 -86 0
-75 -87 0
-75 -88 0
-75 -89 0
-75 -90 0
-76 -77 0
-76 -78 0
-76 -79 0
-76 -80 0
-76 -81 0
-76 -82 0
-76 -83 0
-76 -84 0
-76 -85 0
-76 -86 0
-76 -87 0
-76 -88 0
-76 -89 0
-76 -90 0
-77 -78 0
-77 -79 0
-77 -80 0
-77 -81 0
-77 -82 0
-77 -83 0
-77 -84 0
-77 -85 0
-77 -86 0
-77 -87 0
-77 -88 0
-77 -89 0
-77 -90 0
-78 -79 0
-78 -80 0
-78 -81 0
-78 -82 0
-78 -83 0
-78 -84 0
-78 -85 0
-78 -86 0
-78 -87 0
-78 -88 0
-78 -89 0
-78 -90 0
-79 -80 0
-79 -81 0
-79 -82 0
-79 -83 0
-79 -84 0
-79 -85 0
-79 -86 0
-79 -87 0
-79 -88 0
-79 -89 0
-79 -90 0
-80 -81 0
-80 -82 0
-80 -83 0
-80 -84 0
-80 -85 0
-80 -86 0
-80 -87 0
-80 -88 0
-80 -89 0
-80 -90 0
-81 -82 0
-81 -83 0
-81 -84 0
-81 -85 0
-81 -86 0
-81 -87 0
-81 -88 0
-81 -89 0
-81 -90 0
-82 -83 0
-82 -84 0
-82 -85 0
-82 -86 0
-82 -87 0
-82 -88 0
-82 -89 0
-82 -90 0
-83 -84 0
-83 -85 0
-83 -86 0
-83 -87 0
-83 -88 0
-83 -89 0
-83 -90 0
-84 -85 0
-84 -86 0
-84 -87 0
-84 -88 0
-84 -89 0
-84 -90 0
-85 -86 0
-85 -87 0
-85 -88 0
-85 -89 0
-85 -90 0
-86 -87 0
-86 -88 0
-86 -89 0
-86 -90 0
-87 -88 0
-87 -89 0
-87 -90 0
-88 -89 0
-88 -90 0
-89 -90 0
-91 -92 0
-91 -93 0
-91 -94 0
-91 -95 0
-91 -96 0
-91 -97 0
-91 -98 0
-91 -99 0
-91 -100 0
-91 -101 0
-91 -102 0
-91 -103 0
-91 -104 0
-91 -105 0
-91 -106 0
-91 -107 0
-91 -108 0
-92 -93 0
-92 -94 0
-92 -95 0
-92 -96 0
-92 -97 0
-92 -98 0
-92 -99 0
-92 -100 0
-92 -101 0
-92 -102 0
-92 -103 0
-92 -104 0
-92 -105 0
-92 -106 0
-92 -107 0
-92 -108 0
-93 -94 0
-93 -95 0
-93 -96 0
-93 -97 0
-93 -98 0
-93 -99 0
-93 -100 0
-93 -101 0
-93 -102 0
-93 -103 0
-93 -104 0
-93 -105 0
-93 -106 0
-93 -107 0
-93 -108 0
-94 -95 0
-94 -96 0
-94 -97 0
-94 -98 0
-94 -99 0
-94 -100 0
-94 -101 0
-94 -102 0
-94 -103 0
-94 -104 0
-94 -105 0
-94 -106 0
-94 -107 0
-94 -108 0
-95 -96 0
-95 -97 0
-95 -98 0
-95 -99 0
-95 -100 0
-95 -101 0
-95 -102 0
-95 -103 0
-95 -104 0
-95 -105 0
-95 -106 0
-95 -107 0
-95 -108 0
-96 -97 0
-96 -98 0
-96 -99 0
-96 -100 0
-96 -101 0
-96 -102 0
-96 -103 0
-96 -104 0
-96 -105 0
-96 -106 0
-96 -107 0
-96 -108 0
-97 -98 0
-97 -99 0
-97 -100 0
-97 -101 0
-97 -102 0
-97 -103 0
-97 -104 0
-97 -105 0
-97 -106 0
-97 -107 0
-97 -108 0
-98 -99 0
-98 -100 0
-98 -101 0
-98 -102 0
-98 -103 0
-98 -104 0
-98 -105 0
-98 -106 0
-98 -107 0
-98 -108 0
-99 -100 0
-99 -101 0
-99 -102 0
-99 -103 0
-99 -104 0
-99 -105 0
-99 -106 0
-99 -107 0
-99 -108 0
-100 -101 0
-100 -102 0
-100 -103 0
-100 -104 0
-100 -105 0
-100 -106 0
-100 -107 0
-100 -108 0
-101 -102 0
-101 -103 0
-101 -104 0
-101 -105 0
-101 -106 0
-101 -107 0
-101 -108 0
-102 -103 0
-102 -104 0
-102 -105 0
-102 -106 0
-102 -107 0
-102 -108 0
-103 -104 0
-103 -105 0
-103 -106 0
-103 -107 0
-103 -108 0
-104 -105 0
-104 -106 0
-104 -107 0
-104 -108 0
-105 -106 0
-105 -107 0
-105 -108 0
-106 -107 0
-106 -108 0
-107 -108 0
-109 -110 0
-109 -111 0
-109 -112 0
-109 -113 0
-109 -114 0
-109 -115 0
-109 -116 0
-109 -117 0
-109 -118 0
-109 -119 0
-109 -120 0
-109 -121 0
-109 -122 0
-109 -123 0
-109 -124 0
-109 -125 0
-109 -126 0
-110 -111 0
-110 -112 0
-110 -113 0
-110 -114 0
-110 -115 0
-110 -116 0
-110 -117 0
-110 -118 0
-110 -119 0
-110 -120 0
-110 -121 0
-110 -122 0
-110 -123 0
-110 -124 0
-110 -125 0
-110 -126 0
-111 -112 0
-111 -113 0
-111 -114 0
-111 -115 0
-111 -116 0
-111 -117 0
-111 -118 0
-111 -119 0
-111 -120 0
-111 -121 0
-111 -122 0
-111 -123 0
-111 -124 0
-111 -125 0
-111 -126 0
-112 -113 0
-112 -114 0
-112 -115 0
-112 -116 0
-112 -117 0
-112 -118 0
-112 -119 0
-112 -120 0
-112 -121 0
-112 -122 0
-112 -123 0
-112 -124 0
-112 -125 0
-112 -126 0
-113 -114 0
-113 -115 0
-113 -116 0
-113 -117 0
-113 -118 0
-113 -119 0
-113 -120 0
-113 -121 0
-113 -122 0
-113 -123 0
-113 -124 0
-113 -125 0
-113 -126 0
-114 -115 0
-114 -116 0
-114 -117 0
-114 -118 0
-114 -119 0
-114 -120 0
-114 -121 0
-114 -122 0
-114 -123 0
-114 -124 0
-114 -125 0
-114 -126 0
-115 -116 0
-115 -117 0
-115 -118 0
-115 -119 0
-115 -120 0
-115 -121 0
-115 -122 0
-115 -123 0
-115 -124 0
-115 -125 0
-115 -126 0
-116 -117 0
-116 -118 0
-116 -119 0
-116 -120 0
-116 -121 0
-116 -122 0
-116 -123 0
-116 -124 0
-116 -125 0
-116 -126 0
-117 -118 0
-117 -119 0
-117 -120 0
-117 -121 0
-117 -122 0
-117 -123 0
-117 -124 0
-117 -125 0
-117 -126 0
-118 -119 0
-118 -120 0
-118 -121 0
-118 -122 0
-118 -123 0
-118 -124 0
-118 -125 0
-118 -126 0
-119 -120 0
-119 -121 0
-119 -122 0
-119 -123 0
-119 -124 0
-119 -125 0
-119 -126 0
-120 -121 0
-120 -122 0
-120 -123 0
-120 -124 0
-120 -125 0
-120 -126 0
-121 -122 0
-121 -123 0
-121 -124 0
-121 -125 0
-121 -126 0
-122 -123 0
-122 -124 0
-122 -125 0
-122 -126 0
-123 -124 0
-123 -125 0
-123 -126 0
-124 -125 0
-124 -126 0
-125 -126 0
-127 -128 0
-127 -129 0
-127 -130 0
-127 -131 0
-127 -132 0
-127 -133 0
-127 -134 0
-127 -135 0
-127 -136 0
-127 -137 0
-127 -138 0
-127 -139 0
-127 -140 0
-127 -141 0
-127 -142 0
-127 -143 0
-127 -144 0
-128 -129 0
-128 -130 0
-128 -131 0
-128 -132 0
-128 -133 0
-128 -134 0
-128 -135 0
-128 -136 0
-128 -137 0
-128 -138 0
-128 -139 0
-128 -140 0
-128 -141 0
-128 -142 0
-128 -143 0
-128 -144 0
-129 -130 0
-129 -131 0
-129 -132 0
-129 -133 0
-129 -134 0
-129 -135 0
-129 -136 0
-129 -137 0
-129 -138 0
-129 -139 0
-129 -140 0
-129 -141 0
-129 -142 0
-129 -143 0
-129 -144 0
-130 -131 0
-130 -132 0
-130 -133 0
-130 -134 0
-130 -135 0
-130 -136 0
-130 -137 0
-130 -138 0
-130 -139 0
-130 -140 0
-130 -141 0
-130 -142 0
-130 -143 0
-130 -144 0
-131 -132 0
-131 -133 0
-131 -134 0
-131 -135 0
-131 -136 0
-131 -137 0
-131 -138 0
-131 -139 0
-131 -140 0
-131 -141 0
-131 -142 0
-131 -143 0
-131 -144 0
-132 -133 0
-132 -134 0
-132 -135 0
-132 -136 0
-132 -137 0
-132 -138 0
-132 -139 0
-132 -140 0
-132 -141 0
-132 -142 0
-132 -143 0
-132 -144 0
-133 -134 0
-133 -135 0
-133 -136 0
-133 -137 0
-133 -138 0
-133 -139 0
-133 -140 0
-133 -141 0
-133 -142 0
-133 -143 0
-133 -144 0
-134 -135 0
-134 -136 0
-134 -137 0
-134 -138 0
-134 -139 0
-134 -140 0
-134 -141 0
-134 -142 0
-134 -143 0
-134 -144 0
-135 -136 0
-135 -137 0
-135 -138 0
-135 -139 0
-135 -140 0
-135 -141 0
-135 -142 0
-135 -143 0
-135 -144 0
-136 -137 0
-136 -138 0
-136 -139 0
-136 -140 0
-136 -141 0
-136 -142 0
-136 -143 0
-136 -144 0
-137 -138 0
-137 -139 0
-137 -140 0
-137 -141 0
-137 -142 0
-137 -143 0
-137 -144 0
-138 -139 0
-138 -140 0
-138 -141 0
-138 -142 0
-138 -143 0
-138 -144 0
-139 -140 0
-139 -141 0
-139 -142 0
-139 -143 0
-139 -144 0
-140 -141 0
-140 -142 0
-140 -143 0
-140 -144 0
-141 -142 0
-141 -143 0
-141 -144 0
-142 -143 0
-142 -144 0
-143 -144 0
-145 -146 0
-145 -147 0
-145 -148 0
-145 -149 0
-145 -150 0
-145 -151 0
-145 -152 0
-145 -153 0
-145 -154 0
-145 -155 0
-145 -156 0
-145 -157 0
-145 -158 0
-145 -159 0
-145 -160 0
-145 -161 0
-145 -162 0
-146 -147 0
-146 -148 0
-146 -149 0
-146 -150 0
-146 -151 0
-146 -152 0
-146 -153 0
-146 -154 0
-146 -155 0
-146 -156 0
-146 -157 0
-146 -158 0
-146 -159 0
-146 -160 0
-146 -161 0
-146 -162 0
-147 -148 0
-147 -149 0
-147 -150 0
-147 -151 0
-147 -152 0
-147 -153 0
-147 -154 0
-147 -155 0
-147 -156 0
-147 -157 0
-147 -158 0
-147 -159 0
-147 -160 0
-147 -161 0
-147 -162 0
-148 -149 0
-148 -150 0
-148 -151 0
-148 -152 0
-148 -153 0
-148 -154 0
-148 -155 0
-148 -156 0
-148 -157 0
-148 -158 0
-148 -159 0
-148 -160 0
-148 -161 0
-148 -162 0
-149 -150 0
-149 -151 0
-149 -152 0
-149 -153 0
-149 -154 0
-149 -155 0
-149 -156 0
-149 -157 0
-149 -158 0
-149 -159 0
-149 -160 0
-149 -161 0
-149 -162 0
-150 -151 0
-150 -152 0
-150 -153 0
-150 -154 0
-150 -155 0
-150 -156 0
-150 -157 0
-150 -158 0
-150 -159 0
-150 -160 0
-150 -161 0
-150 -162 0
-151 -152 0
-151 -153 0
-151 -154 0
-151 -155 0
-151 -156 0
-151 -157 0
-151 -158 0
-151 -159 0
-151 -160 0
-151 -161 0
-151 -162 0
-152 -153 0
-152 -154 0
-152 -155 0
-152 -156 0
-152 -157 0
-152 -158 0
-152 -159 0
-152 -160 0
-152 -161 0
-152 -162 0
-153 -154 0
-153 -155 0
-153 -156 0
-153 -157 0
-153 -158 0
-153 -159 0
-153 -160 0
-153 -161 0
-153 -162 0
-154 -155 0
-154 -156 0
-154 -157 0
-154 -158 0
-154 -159 0
-154 -160 0
-154 -161 0
-154 -162 0
-155 -156 0
-155 -157 0
-155 -158 0
-155 -159 0
-155 -160 0
-155 -161 0
-155 -162 0
-156 -157 0
-156 -158 0
-156 -159 0
-156 -160 0
-156 -161 0
-156 -162 0
-157 -158 0
-157 -159 0
-157 -160 0
-157 -161 0
-157 -162 0
-158 -159 0
-158 -160 0
-158 -161 0
-158 -162 0
-159 -160 0
-159 -161 0
-159 -162 0
-160 -161 0
-160 -162 0
-161 -162 0
-163 -164 0
-163 -165 0
-163 -166 0
-163 -167 0
-163 -168 0
-163 -169 0
-163 -170 0
-163 -171 0
-163 -172 0
-163 -173 0
-163 -174 0
-163 -175 0
-163 -176 0
-163 -177 0
-163 -178 0
-163 -179 0
-163 -180 0
-164 -165 0
-164 -166 0
-164 -167 0
-164 -168 0
-164 -169 0
-164 -170 0
-164 -171 0
-164 -172 0
-164 -173 0
-164 -174 0
-164 -175 0
-164 -176 0
-164 -177 0
-164 -178 0
-164 -179 0
-164 -180 0
-165 -166 0
-165 -167 0
-165 -168 0
-165 -169 0
-165 -170 0
-165 -171 0
-165 -172 0
-165 -173 0
-165 -174 0
-165 -175 0
-165 -176 0
-165 -177 0
-165 -178 0
-165 -179 0
-165 -180 0
-166 -167 0
-166 -168 0
-166 -169 0
-166 -170 0
-166 -171 0
-166 -172 0
-166 -173 0
-166 -174 0
-166 -175 0
-166 -176 0
-166 -177 0
-166 -178 0
-166 -179 0
-166 -180 0
-167 -168 0
-167 -169 0
-167 -170 0
-167 -171 0
-167 -172 0
-167 -173 0
-167 -174 0
-167 -175 0
-167 -176 0
-167 -177 0
-167 -178 0
-167 -179 0
-167 -180 0
-168 -169 0
-168 -170 0
-168 -171 0
-168 -172 0
-168 -173 0
-168 -174 0
-168 -175 0
-168 -176 0
-168 -177 0
-168 -178 0
-168 -179 0
-168 -180 0
-169 -170 0
-169 -171 0
-169 -172 0
-169 -173 0
-169 -174 0
-169 -175 0
-169 -176 0
-169 -177 0
-169 -178 0
-169 -179 0
-169 -180 0
-170 -171 0
-170 -172 0
-170 -173 0
-170 -174 0
-170 -175 0
-170 -176 0
-170 -177 0
-170 -178 0
-170 -179 0
-170 -180 0
-171 -172 0
-171 -173 0
-171 -174 0
-171 -175 0
-171 -176 0
-171 -177 0
-171 -178 0
-171 -179 0
-171 -180 0
-172 -173 0
-172 -174 0
-172 -175 0
-172 -176 0
-172 -177 0
-172 -178 0
-172 -179 0
-172 -180 0
-173 -174 0
-173 -175 0
-173 -176 0
-173 -177 0
-173 -178 0
-173 -179 0
-173 -180 0
-174 -175 0
-174 -176 0
-174 -177 0
-174 -178 0
-174 -179 0
-174 -180 0
-175 -176 0
-175 -177 0
-175 -178 0
-175 -179 0
-175 -180 0
-176 -177 0
-176 -178 0
-176 -179 0
-176 -180 0
-177 -178 0
-177 -179 0
-177 -180 0
-178 -179 0
-178 -180 0
-179 -180 0
-1 -19 0
-1 -37 0
-1 -55 0
-1 -73 0
-1 -91 0
-1 -109 0
-1 -127 0
-1 -145 0
-1 -163 0
-19 -37 0
-19 -55 0
-19 -73 0
-19 -91 0
-19 -109 0
-19 -127 0
-19 -145 0
-19 -163 0
-37 -55 0
-37 -73 0
-37 -91 0
-37 -109 0
-37 -127 0
-37 -145 0
-37 -163 0
-55 -73 0
-55 -91 0
-55 -109 0
-55 -127 0
-55 -145 0
-55 -163 0
-73 -91 0
-73 -109 0
-73 -127 0
-73 -145 0
-73 -163 0
-91 -109 0
-91 -127 0
-91 -145 0
-91 -163 0
-109 -127 0
-109 -145 0
-109 -163 0
-127 -145 0
-127 -163 0
-145 -163 0
-2 -20 0
-2 -38 0
-2 -56 0
-2 -74 0
-2 -92 0
-2 -110 0
-2 -128 0
-2 -146 0
-2 -164 0
-20 -38 0
-20 -56 0
-20 -74 0
-20 -92 0
-20 -110 0
-20 -128 0
-20 -146 0
-20 -164 0
-38 -56 0
-38 -74 0
-38 -92 0
-38 -110 0
-38 -128 0
-38 -146 0
-38 -164 0
-56 -74 0
-56 -92 0
-56 -110 0
-56 -128 0
-56 -146 0
-56 -164 0
-74 -92 0
-74 -110 0
-74 -128 0
-74 -146 0
-74 -164 0
-92 -110 0
-92 -128 0
-92 -146 0
-92 -164 0
-110 -128 0
-110 -146 0
-110 -164 0
-128 -146 0
-128 -164 0
-146 -164 0
-3 -21 0
-3 -39 0
-3 -57 0
-3 -75 0
-3 -93 0
-3 -111 0
-3 -129 0
-3 -147 0
-3 -165 0
-21 -39 0
-21 -57 0
-21 -75 0
-21 -93 0
-21 -111 0
-21 -129 0
-21 -147 0
-21 -165 0
-39 -57 0
-39 -75 0
-39 -93 0
-39 -111 0
-39 -129 0
-39 -147 0
-39 -165 0
-57 -75 0
-57 -93 0
-57 -111 0
-57 -129 0
-57 -147 0
-57 -165 0
-75 -93 0
-75 -111 0
-75 -129 0
-75 -147 0
-75 -165 0
-93 -111 0
-93 -129 0
-93 -147 0
-93 -165 0
-111 -129 0
-111 -147 0
-111 -165 0
-129 -147 0
-129 -165 0
-147 -165 0
-4 -22 0
-4 -40 0
-4 -58 0
-4 -76 0
-4 -94 0
-4 -112 0
-4 -130 0
-4 -148 0
-4 -166 0
-22 -40 0
-22 -58 0
-22 -76 0
-22 -94 0
-22 -112 0
-22 -130 0
-22 -148 0
-22 -166 0
-40 -58 0
-40 -76 0
-40 -94 0
-40 -112 0
-40 -130 0
-40 -148 0
-40 -166 0
-58 -76 0
-58 -94 0
-58 -112 0
-58 -130 0
-58 -148 0
-58 -166 0
-76 -94 0
-76 -112 0
-76 -130 0
-76 -148 0
-76 -166 0
-94 -112 0
-94 -130 0
-94 -148 0
-94 -166 0
-112 -130 0
-112 -148 0
-112 -166 0
-130 -148 0
-130 -166 0
-148 -166 0
-5 -23 0
-5 -41 0
-5 -59 0
-5 -77 0
-5 -95 0
-5 -113 0
-5 -131 0
-5 -149 0
-5 -167 0
-23 -41 0
-23 -59 0
-23 -77 0
-23 -95 0
-23 -113 0
-23 -131 0
-23 -149 0
-23 -167 0
-41 -59 0
-41 -77 0
-41 -95 0
-41 -113 0
-41 -131 0
-41 -149 0
-41 -167 0
-59 -77 0
-59 -95 0
-59 -113 0
-59 -131 0
-59 -149 0
-59 -167 0
-77 -95 0
-77 -113 0
-77 -131 0
-77 -149 0
-77 -167 0
-95 -113 0
-95 -131 0
-95 -149 0
-95 -167 0
-113 -131 0
-113 -149 0
-113 -167 0
-131 -149 0
-131 -167 0
-149 -167 0
-6 -24 0
-6 -42 0
-6 -60 0
-6 -78 0
-6 -96 0
-6 -114 0
-6 -132 0
-6 -150 0
-6 -168 0
-24 -42 0
-24 -60 0
-24 -78 0
-24 -96 0
-24 -114 0
-24 -132 0
-24 -150 0
-24 -168 0
-42 -60 0
-42 -78 0
-42 -96 0
-42 -114 0
-42 -132 0
-42 -150 0
-42 -168 0
-60 -78 0
-60 -96 0
-60 -114 0
-60 -132 0
-60 -150 0
-60 -168 0
-78 -96 0
-78 -114 0
-78 -132 0
-78 -150 0
-78 -168 0
-96 -114 0
-96 -132 0
-96 -150 0
-96 -168 0
-114 -132 0
-114 -150 0
-114 -168 0
-132 -150 0
-132 -168 0
-150 -168 0
-7 -25 0
-7 -43 0
-7 -61 0
-7 -79 0
-7 -97 0
-7 -115 0
-7 -133 0
-7 -151 0
-7 -169 0
-25 -43 0
-25 -61 0
-25 -79 0
-25 -97 0
-25 -115 0
-25 -133 0
-25 -151 0
-25 -169 0
-43 -61 0
-43 -79 0
-43 -97 0
-43 -115 0
-43 -133 0
-43 -151 0
-43 -169 0
-61 -79 0
-61 -97 0
-61 -115 0
-61 -133 0
-61 -151 0
-61 -169 0
-79 -97 0
-79 -115 0
-79 -133 0
-79 -151 0
-79 -169 0
-97 -115 0
-97 -133 0
-97 -151 0
-97 -169 0
-115 -133 0
-115 -151 0
-115 -169 0
-133 -151 0
-133 -169 0
-151 -169 0
-8 -26 0
-8 -44 0
-8 -62 0
-8 -80 0
-8 -98 0
-8 -116 0
-8 -134 0
-8 -152 0
-8 -170 0
-26 -44 0
-26 -62 0
-26 -80 0
-26 -98 0
-26 -116 0
-26 -134 0
-26 -152 0
-26 -170 0
-44 -62 0
-44 -80 0
-44 -98 0
-44 -116 0
-44 -134 0
-44 -152 0
-44 -170 0
-62 -80 0
-62 -98 0
-62 -116 0
-62 -134 0
-62 -152 0
-62 -170 0
-80 -98 0
-80 -116 0
-80 -134 0
-80 -152 0
-80 -170 0
-98 -116 0
-98 -134 0
-98 -152 0
-98 -170 0
-116 -134 0
-116 -152 0
-116 -170 0
-134 -152 0
-134 -170 0
-152 -170 0
-9 -27 0
-9 -45 0
-9 -63 0
-9 -81 0
-9 -99 0
-9 -117 0
-9 -135 0
-9 -153 0
-9 -171 0
-27 -45 0
-27 -63 0
-27 -81 0
-27 -99 0
-27 -117 0
-27 -135 0
-27 -153 0
-27 -171 0
-45 -63 0
-45 -81 0
-45 -99 0
-45 -117 0
-45 -135 0
-45 -153 0
-45 -171 0
-63 -81 0
-63 -99 0
-63 -117 0
-63 -135 0
-63 -153 0
-63 -171 0
-81 -99 0
-81 -117 0
-81 -135 0
-81 -153 0
-81 -171 0
-99 -117 0
-99 -135 0
-99 -153 0
-99 -171 0
-117 -135 0
-117 -153 0
-117 -171 0
-135 -153 0
-135 -171 0
-153 -171 0
-10 -28 0
-10 -46 0
-10 -64 0
-10 -82 0
-10 -100 0
-10 -118 0
-10 -136 0
-10 -154 0
-10 -172 0
-28 -46 0
-28 -64 0
-28 -82 0
-28 -100 0
-28 -118 0
-28 -136 0
-28 -154 0
-28 -172 0
-46 -64 0
-46 -82 0
-46 -100 0
-46 -118 0
-46 -136 0
-46 -154 0
-46 -172 0
-64 -82 0
-64 -100 0
-64 -118 0
-64 -136 0
-64 -154 0
-64 -172 0
-82 -100 0
-82 -118 0
-82 -136 0
-82 -154 0
-82 -172 0
-100 -118 0
-100 -136 0
-100 -154 0
-100 -172 0
-118 -136 0
-118 -154 0
-118 -172 0
-136 -154 0
-136 -172 0
-154 -172 0
-11 -29 0
-11 -47 0
-11 -65 0
-11 -83 0
-11 -101 0
-11 -119 0
-11 -137 0
-11 -155 0
-11 -173 0
-29 -47 0
-29 -65 0
-29 -83 0
-29 -101 0
-29 -119 0
-29 -137 0
-29 -155 0
-29 -173 0
-47 -65 0
-47 -83 0
-47 -101 0
-47 -119 0
-47 -137 0
-47 -155 0
-47 -173 0
-65 -83 0
-65 -101 0
-65 -119 0
-65 -137 0
-65 -155 0
-65 -173 0
-83 -101 0
-83 -119 0
-83 -137 0
-83 -155 0
-83 -173 0
-101 -119 0
-101 -137 0
-101 -155 0
-101 -173 0
-119 -137 0
-119 -155 0
-119 -173 0
-137 -155 0
-137 -173 0
-155 -173 0
-12 -30 0
-12 -48 0
-12 -66 0
-12 -84 0
-12 -102 0
-12 -120 0
-12 -138 0
-12 -156 0
-12 -174 0
-30 -48 0
-30 -66 0
-30 -84 0
-30 -102 0
-30 -120 0
-30 -138 0
-30 -156 0
-30 -174 0
-48 -66 0
-48 -84 0
-48 -102 0
-48 -120 0
-48 -138 0
-48 -156 0
-48 -174 0
-66 -84 0
-66 -102 0
-66 -120 0
-66 -138 0
-66 -156 0
-66 -174 0
-84 -102 0
-84 -120 0
-84 -138 0
-84 -156 0
-84 -174 0
-102 -120 0
-102 -138 0
-102 -156 0
-102 -174 0
-120 -138 0
-120 -156 0
-120 -174 0
-138 -156 0
-138 -174 0
-156 -174 0
-13 -31 0
-13 -49 0
-13 -67 0
-13 -85 0
-13 -103 0
-13 -121 0
-13 -139 0
-13 -157 0
-13 -175 0
-31 -49 0
-31 -67 0
-31 -85 0
-31 -103 0
-31 -121 0
-31 -139 0
-31 -157 0
-31 -175 0
-49 -67 0
-49 -85 0
-49 -103 0
-49 -121 0
-49 -139 0
-49 -157 0
-49 -175 0
-67 -85 0
-67 -103 0
-67 -121 0
-67 -139 0
-67 -157 0
-67 -175 0
-85 -103 0
-85 -121 0
-85 -139 0
-85 -157 0
-85 -175 0
-103 -121 0
-103 -139 0
-103 -157 0
-103 -175 0
-121 -139 0
-121 -157 0
-121 -175 0
-139 -157 0
-139 -175 0
-157 -175 0
-14 -32 0
-14 -50 0
-14 -68 0
-14 -86 0
-14 -104 0
-14 -122 0
-14 -140 0
-14 -158 0
-14 -176 0
-32 -50 0
-32 -68 0
-32 -86 0
-32 -104 0
-32 -122 0
-32 -140 0
-32 -158 0
-32 -176 0
-50 -68 0
-50 -86 0
-50 -104 0
-50 -122 0
-50 -140 0
-50 -158 0
-50 -176 0
-68 -86 0
-68 -104 0
-68 -122 0
-68 -140 0
-68 -158 0
-68 -176 0
-86 -104 0
-86 -122 0
-86 -140 0
-86 -158 0
-86 -176 0
-104 -122 0
-104 -140 0
-104 -158 0
-104 -176 0
-122 -140 0
-122 -158 0
-122 -176 0
-140 -158 0
-140 -176 0
-158 -176 0
-15 -33 0
-15 -51 0
-15 -69 0
-15 -87 0
-15 -105 0
-15 -123 0
-15 -141 0
-15 -159 0
-15 -177 0
-33 -51 0
-33 -69 0
-33 -87 0
-33 -105 0
-33 -123 0
-33 -141 0
-33 -159 0
-33 -177 0
-51 -69 0
-51 -87 0
-51 -105 0
-51 -123 0
-51 -141 0
-51 -159 0
-51 -177 0
-69 -87 0
-69 -105 0
-69 -123 0
-69 -141 0
-69 -159 0
-69 -177 0
-87 -105 0
-87 -123 0
-87 -141 0
-87 -159 0
-87 -177 0
-105 -123 0
-105 -141 0
-105 -159 0
-105 -177 0
-123 -141 0
-123 -159 0
-123 -177 0
-141 -159 0
-141 -177 0
-159 -177 0
-16 -34 0
-16 -52 0
-16 -70 0
-16 -88 0
-16 -106 0
-16 -124 0
-16 -142 0
-16 -160 0
-16 -178 0
-34 -52 0
-34 -70 0
-34 -88 0
-34 -106 0
-34 -124 0
-34 -142 0
-34 -160 0
-34 -178 0
-52 -70 0
-52 -88 0
-52 -106 0
-52 -124 0
-52 -142 0
-52 -160 0
-52 -178 0
-70 -88 0
-70 -106 0
-70 -124 0
-70 -142 0
-70 -160 0
-70 -178 0
-88 -106 0
-88 -124 0
-88 -142 0
-88 -160 0
-88 -178 0
-106 -124 0
-106 -142 0
-106 -160 0
-106 -178 0
-124 -142 0
-124 -160 0
-124 -178 0
-142 -160 0
-142 -178 0
-160 -178 0
-17 -35 0
-17 -53 0
-17 -71 0
-17 -89 0
-17 -107 0
-17 -125 0
-17 -143 0
-17 -161 0
-17 -179 0
-35 -53 0
-35 -71 0
-35 -89 0
-35 -107 0
-35 -125 0
-35 -143 0
-35 -161 0
-35 -179 0
-53 -71 0
-53 -89 0
-53 -107 0
-53 -125 0
-53 -143 0
-53 -161 0
-53 -179 0
-71 -89 0
-71 -107 0
-71 -125 0
-71 -143 0
-71 -161 0
-71 -179 0
-89 -107 0
-89 -125 0
-89 -143 0
-89 -161 0
-89 -179 0
-107 -125 0
-107 -143 0
-107 -161 0
-107 -179 0
-125 -143 0
-125 -161 0
-125 -179 0
-143 -161 0
-143 -179 0
-161 -179 0
-18 -36 0
-18 -54 0
-18 -72 0
-18 -90 0
-18 -108 0
-18 -126 0
-18 -144 0
-18 -162 0
-18 -180 0
-36 -54 0
-36 -72 0
-36 -90 0
-36 -108 0
-36 -126 0
-36 -144 0
-36 -162 0
-36 -180 0
-54 -72 0
-54 -90 0
-54 -108 0
-54 -126 0
-54 -144 0
-54 -162 0
-54 -180 0
-72 -90 0
-72 -108 0
-72 -126 0
-72 -144 0
-72 -162 0
-72 -180 0
-90 -108 0
-90 -126 0
-90 -144 0
-90 -162 0
-90 -180 0
-108 -126 0
-108 -144 0
-108 -162 0
-108 -180 0
-126 -144 0
-126 -162 0
-126 -180 0
-144 -162 0
-144 -180 0
-162 -180 0
-1 -20 0
-2 -19 0
-3 -22 0
-4 -21 0
-5 -24 0
-6 -23 0
-7 -26 0
-8 -25 0
-9 -28 0
-10 -27 0
-11 -30 0
-12 -29 0
-13 -32 0
-14 -31 0
-15 -34 0
-16 -33 0
-17 -36 0
-18 -35 0
-1 -38 0
-2 -37 0
-3 -40 0
-4 -39 0
-5 -42 0
-6 -41 0
-7 -44 0
-8 -43 0
-9 -46 0
-10 -45 0
-11 -48 0
-12 -47 0
-13 -50 0
-14 -49 0
-15 -52 0
-16 -51 0
-17 -54 0
-18 -53 0
-1 -56 0
-2 -55 0
-3 -58 0
-4 -57 0
-5 -60 0
-6 -59 0
-7 -62 0
-8 -61 0
-9 -64 0
-10 -63 0
-11 -66 0
-12 -65 0
-13 -68 0
-14 -67 0
-15 -70 0
-16 -69 0
-17 -72 0
-18 -71 0
-1 -74 0
-2 -73 0
-3 -76 0
-4 -75 0
-5 -78 0
-6 -77 0
-7 -80 0
-8 -79 0
-9 -82 0
-10 -81 0
-11 -84 0
-12 -83 0
-13 -86 0
-14 -85 0
-15 -88 0
-16 -87 0
-17 -90 0
-18 -89 0
-1 -92 0
-2 -91 0
-3 -94 0
-4 -93 0
-5 -96 0
-6 -95 0
-7 -98 0
-8 -97 0
-9 -100 0
-10 -99 0
-11 -102 0
-12 -101 0
-13 -104 0
-14 -103 0
-15 -106 0
-16 -105 0
-17 -108 0
-18 -107 0
-1 -110 0
-2 -109 0
-3 -112 0
-4 -111 0
-5 -114 0
-6 -113 0
-7 -116 0
-8 -115 0
-9 -118 0
-10 -117 0
-11 -120 0
-12 -119 0
-13 -122 0
-14 -121 0
-15 -124 0
-16 -123 0
-17 -126 0
-18 -125 0
-1 -128 0
-2 -127 0
-3 -130 0
-4 -129 0
-5 -132 0
-6 -131 0
-7 -134 0
-8 -133 0
-9 -136 0
-10 -135 0
-11 -138 0
-12 -137 0
-13 -140 0
-14 -139 0
-15 -142 0
-16 -141 0
-17 -144 0
-18 -143 0
-1 -146 0
-2 -145 0
-3 -148 0
-4 -147 0
-5 -150 0
-6 -149 0
-7 -152 0
-8 -151 0
-9 -154 0
-10 -153 0
-11 -156 0
-12 -155 0
-13 -158 0
-14 -157 0
-15 -160 0
-16 -159 0
-17 -162 0
-18 -161 0
-1 -164 0
-2 -163 0
-3 -166 0
-4 -165 0
-5 -168 0
-6 -167 0
-7 -170 0
-8 -169 0
-9 -172 0
-10 -171 0
-11 -174 0
-12 -173 0
-13 -176 0
-14 -175 0
-15 -178 0
-16 -177 0
-17 -180 0
-18 -179 0
-19 -38 0
-20 -37 0
-21 -40 0
-22 -39 0
-23 -42 0
-24 -41 0
-25 -44 0
-26 -43 0
-27 -46 0
-28 -45 0
-29 -48 0
-30 -47 0
-31 -50 0
-32 -49 0
-33 -52 0
-34 -51 0
-35 -54 0
-36 -53 0
-19 -56 0
-20 -55 0
-21 -58 0
-22 -57 0
-23 -60 0
-24 -59 0
-25 -62 0
-26 -61 0
-27 -64 0
-28 -63 0
-29 -66 0
-30 -65 0
-31 -68 0
-32 -67 0
-33 -70 0
-34 -69 0
-35 -72 0
-36 -71 0
-19 -74 0
-20 -73 0
-21 -76 0
-22 -75 0
-23 -78 0
-24 -77 0
-25 -80 0
-26 -79 0
-27 -82 0
-28 -81 0
-29 -84 0
-30 -83 0
-31 -86 0
-32 -85 0
-33 -88 0
-34 -87 0
-35 -90 0
-36 -89 0
-19 -92 0
-20 -91 0
-21 -94 0
-22 -93 0
-23 -96 0
-24 -95 0
-25 -98 0
-26 -97 0
-27 -100 0
-28 -99 0
-29 -102 0
-30 -101 0
-31 -104 0
-32 -103 0
-33 -106 0
-34 -105 0
-35 -108 0
-36 -107 0
-19 -110 0
-20 -109 0
-21 -112 0
-22 -111 0
-23 -114 0
-24 -113 0
-25 -116 0
-26 -115 0
-27 -118 0
-28 -117 0
-29 -120 0
-30 -119 0
-31 -122 0
-32 -121 0
-33 -124 0
-34 -123 0
-35 -126 0
-36 -125 0
-19 -128 0
-20 -127 0
-21 -130 0
-22 -129 0
-23 -132 0
-24 -131 0
-25 -134 0
-26 -133 0
-27 -136 0
-28 -135 0
-29 -138 0
-30 -137 0
-31 -140 0
-32 -139 0
-33 -142 0
-34 -141 0
-35 -144 0
-36 -143 0
-19 -146 0
-20 -145 0
-21 -148 0
-22 -147 0
-23 -150 0
-24 -149 0
-25 -152 0
-26 -151 0
-27 -154 0
-28 -153 0
-29 -156 0
-30 -155 0
-31 -158 0
-32 -157 0
-33 -160 0
-34 -159 0
-35 -162 0
-36 -161 0
-19 -164 0
-20 -163 0
-21 -166 0
-22 -165 0
-23 -168 0
-24 -167 0
-25 -170 0
-26 -169 0
-27 -172 0
-28 -171 0
-29 -174 0
-30 -173 0
-31 -176 0
-32 -175 0
-33 -178 0
-34 -177 0
-35 -180 0
-36 -179 0
-37 -56 0
-38 -55 0
-39 -58 0
-40 -57 0
-41 -60 0
-42 -59 0
-43 -62 0
-44 -61 0
-45 -64 0
-46 -63 0
-47 -66 0
-48 -65 0
-49 -68 0
-50 -67 0
-51 -70 0
-52 -69 0
-53 -72 0
-54 -71 0
-37 -74 0
-38 -73 0
-39 -76 0
-40 -75 0
-41 -78 0
-42 -77 0
-43 -80 0
-44 -79 0
-45 -82 0
-46 -81 0
-47 -84 0
-48 -83 0
-49 -86 0
-50 -85 0
-51 -88 0
-52 -87 0
-53 -90 0
-54 -89 0
-37 -92 0
-38 -91 0
-39 -94 0
-40 -93 0
-41 -96 0
-42 -95 0
-43 -98 0
-44 -97 0
-45 -100 0
-46 -99 0
-47 -102 0
-48 -101 0
-49 -104 0
-50 -103 0
-51 -106 0
-52 -105 0
-53 -108 0
-54 -107 0
-37 -110 0
-38 -109 0
-39 -112 0
-40 -111 0
-41 -114 0
-42 -113 0
-43 -116 0
-44 -115 0
-45 -118 0
-46 -117 0
-47 -120 0
-48 -119 0
-49 -122 0
-50 -121 0
-51 -124 0
-52 -123 0
-53 -126 0
-54 -125 0
-37 -128 0
-38 -127 0
-39 -130 0
-40 -129 0
-41 -132 0
-42 -131 0
-43 -134 0
-44 -133 0
-45 -136 0
-46 -135 0
-47 -138 0
-48 -137 0
-49 -140 0
-50 -139 0
-51 -142 0
-52 -141 0
-53 -144 0
-54 -143 0
-37 -146 0
-38 -145 0
-39 -148 0
-40 -147 0
-41 -150 0
-42 -149 0
-43 -152 0
-44 -151 0
-45 -154 0
-46 -153 0
-47 -156 0
-48 -155 0
-49 -158 0
-50 -157 0
-51 -160 0
-52 -159 0
-53 -162 0
-54 -161 0
-37 -164 0
-38 -163 0
-39 -166 0
-40 -165 0
-41 -168 0
-42 -167 0
-43 -170 0
-44 -169 0
-45 -172 0
-46 -171 0
-47 -174 0
-48 -173 0
-49 -176 0
-50 -175 0
-51 -178 0
-52 -177 0
-53 -180 0
-54 -179 0
-55 -74 0
-56 -73 0
-57 -76 0
-58 -75 0
-59 -78 0
-60 -77 0
-61 -80 0
-62 -79 0
-63 -82 0
-64 -81 0
-65 -84 0
-66 -83 0
-67 -86 0
-68 -85 0
-69 -88 0
-70 -87 0
-71 -90 0
-72 -89 0
-55 -92 0
-56 -91 0
-57 -94 0
-58 -93 0
-59 -96 0
-60 -95 0
-61 -98 0
-62 -97 0
-63 -100 0
-64 -99 0
-65 -102 0
-66 -101 0
-67 -104 0
-68 -103 0
-69 -106 0
-70 -105 0
-71 -108 0
-72 -107 0
-55 -110 0
-56 -109 0
-57 -112 0
-58 -111 0
-59 -114 0
-60 -113 0
-61 -116 0
-62 -115 0
-63 -118 0
-64 -117 0
-65 -120 0
-66 -119 0
-67 -122 0
-68 -121 0
-69 -124 0
-70 -123 0
-71 -126 0
-72 -125 0
-55 -128 0
-56 -127 0
-57 -130 0
-58 -129 0
-59 -132 0
-60 -131 0
-61 -134 0
-62 -133 0
-63 -136 0
-64 -135 0
-65 -138 0
-66 -137 0
-67 -140 0
-68 -139 0
-69 -142 0
-70 -141 0
-71 -144 0
-72 -143 0
-55 -146 0
-56 -145 0
-57 -148 0
-58 -147 0
-59 -150 0
-60 -149 0
-61 -152 0
-62 -151 0
-63 -154 0
-64 -153 0
-65 -156 0
-66 -155 0
-67 -158 0
-68 -157 0
-69 -160 0
-70 -159 0
-71 -162 0
-72 -161 0
-55 -164 0
-56 -163 0
-57 -166 0
-58 -165 0
-59 -168 0
-60 -167 0
-61 -170 0
-62 -169 0
-63 -172 0
-64 -171 0
-65 -174 0
-66 -173 0
-67 -176 0
-68 -175 0
-69 -178 0
-70 -177 0
-71 -180 0
-72 -179 0
-73 -92 0
-74 -91 0
-75 -94 0
-76 -93 0
-77 -96 0
-78 -95 0
-79 -98 0
-80 -97 0
-81 -100 0
-82 -99 0
-83 -102 0
-84 -101 0
-85 -104 0
-86 -103 0
-87 -106 0
-88 -105 0
-89 -108 0
-90 -107 0
-73 -110 0
-74 -109 0
-75 -112 0
-76 -111 0
-77 -114 0
-78 -113 0
-79 -116 0
-80 -115 0
-81 -118 0
-82 -117 0
-83 -120 0
-84 -119 0
-85 -122 0
-86 -121 0
-87 -124 0
-88 -123 0
-89 -126 0
-90 -125 0
-73 -128 0
-74 -127 0
-75 -130 0
-76 -129 0
-77 -132 0
-78 -131 0
-79 -134 0
-80 -133 0
-81 -136 0
-82 -135 0
-83 -138 0
-84 -137 0
-85 -140 0
-86 -139 0
-87 -142 0
-88 -141 0
-89 -144 0
-90 -143 0
-73 -146 0
-74 -145 0
-75 -148 0
-76 -147 0
-77 -150 0
-78 -149 0
-79 -152 0
-80 -151 0
-81 -154 0
-82 -153 0
-83 -156 0
-84 -155 0
-85 -158 0
-86 -157 0
-87 -160 0
-88 -159 0
-89 -162 0
-90 -161 0
-73 -164 0
-74 -163 0
-75 -166 0
-76 -165 0
-77 -168 0
-78 -167 0
-79 -170 0
-80 -169 0
-81 -172 0
-82 -171 0
-83 -174 0
-84 -173 0
-85 -176 0
-86 -175 0
-87 -178 0
-88 -177 0
-89 -180 0
-90 -179 0
-91 -110 0
-92 -109 0
-93 -112 0
-94 -111 0
-95 -114 0
-96 -113 0
-97 -116 0
-98 -115 0
-99 -118 0
-100 -117 0
-101 -120 0
-102 -119 0
-103 -122 0
-104 -121 0
-105 -124 0
-106 -123 0
-107 -126 0
-108 -125 0
-91 -128 0
-92 -127 0
-93 -130 0
-94 -129 0
-95 -132 0
-96 -131 0
-97 -134 0
-98 -133 0
-99 -136 0
-100 -135 0
-101 -138 0
-102 -137 0
-103 -140 0
-104 -139 0
-105 -142 0
-106 -141 0
-107 -144 0
-108 -143 0
-91 -146 0
-92 -145 0
-93 -148 0
-94 -147 0
-95 -150 0
-96 -149 0
-97 -152 0
-98 -151 0
-99 -154 0
-100 -153 0
-101 -156 0
-102 -155 0
-103 -158 0
-104 -157 0
-105 -160 0
-106 -159 0
-107 -162 0
-108 -161 0
-91 -164 0
-92 -163 0
-93 -166 0
-94 -165 0
-95 -168 0
-96 -167 0
-97 -170 0
-98 -169 0
-99 -172 0
-100 -171 0
-101 -174 0
-102 -173 0
-103 -176 0
-104 -175 0
-105 -178 0
-106 -177 0
-107 -180 0
-108 -179 0
-109 -128 0
-110 -127 0
-111 -130 0
-112 -129 0
-113 -132 0
-114 -131 0
-115 -134 0
-116 -133 0
-117 -136 0
-118 -135 0
-119 -138 0
-120 -137 0
-121 -140 0
-122 -139 0
-123 -142 0
-124 -141 0
-125 -144 0
-126 -143 0
-109 -146 0
-110 -145 0
-111 -148 0
-112 -147 0
-113 -150 0
-114 -149 0
-115 -152 0
-116 -151 0
-117 -154 0
-118 -153 0
-119 -156 0
-120 -155 0
-121 -158 0
-122 -157 0
-123 -160 0
-124 -159 0
-125 -162 0
-126 -161 0
-109 -164 0
-110 -163 0
-111 -166 0
-112 -165 0
-113 -168 0
-114 -167 0
-115 -170 0
-116 -169 0
-117 -172 0
-118 -171 0
-119 -174 0
-120 -173 0
-121 -176 0
-122 -175 0
-123 -178 0
-124 -177 0
-125 -180 0
-126 -179 0
-127 -146 0
-128 -145 0
-129 -148 0
-130 -147 0
-131 -150 0
-132 -149 0
-133 -152 0
-134 -151 0
-135 -154 0
-136 -153 0
-137 -156 0
-138 -155 0
-139 -158 0
-140 -157 0
-141 -160 0
-142 -159 0
-143 -162 0
-144 -161 0
-127 -164 0
-128 -163 0
-129 -166 0
-130 -165 0
-131 -168 0
-132 -167 0
-133 -170 0
-134 -169 0
-135 -172 0
-136 -171 0
-137 -174 0
-138 -173 0
-139 -176 0
-140 -175 0
-141 -178 0
-142 -177 0
-143 -180 0
-144 -179 0
-145 -164 0
-146 -163 0
-147 -166 0
-148 -165 0
-149 -168 0
-150 -167 0
-151 -170 0
-152 -169 0
-153 -172 0
-154 -171 0
-155 -174 0
-156 -173 0
-157 -176 0
-158 -175 0
-159 -178 0
-160 -177 0
-161 -180 0
-162 -179 0
181 0
176 -175 0
182 0
173 -174 0
183 0
172 -171 0
184 0
-169 170 0
185 0
-167 168 0
186 0
166 -165 0
187 0
-163 164 0
188 0
178 -177 0
189 0
162 -161 0
190 0
160 -159 0
191 0
156 -155 0
192 0
-153 154 0
193 0
152 -151 0
194 0
-149 150 0
195 0
-146 145 0
196 0
158 -157 0
197 0
-139 140 0
198 0
137 -138 0
199 0
136 -135 0
200 0
133 -134 0
201 0
-131 132 0
202 0
-130 129 0
203 0
-127 128 0
204 0
144 -143 0
205 0
126 -125 0
206 0
-119 120 0
207 0
117 -118 0
208 0
-115 116 0
209 0
-113 114 0
210 0
112 -111 0
211 0
-109 110 0
212 0
-123 124 0
213 0
-105 106 0
214 0
-103 104 0
215 0
-102 101 0
216 0
-99 100 0
217 0
-95 96 0
218 0
94 -93 0
219 0
-91 92 0
220 0
108 -107 0
221 0
-89 90 0
222 0
-85 86 0
223 0
-81 82 0
224 0
80 -79 0
225 0
-77 78 0
226 0
-75 76 0
227 0
-73 74 0
228 0
-87 88 0
229 0
69 -70 0
230 0
-67 68 0
231 0
66 -65 0
232 0
-63 64 0
233 0
62 -61 0
234 0
-57 58 0
235 0
56 -55 0
236 0
72 -71 0
237 0
-35 36 0
238 0
-31 32 0
239 0
-29 30 0
240 0
-25 26 0
241 0
-23 24 0
242 0
22 -21 0
243 0
20 -19 0
244 0
34 -33 0
245 0
-15 16 0
246 0
14 -13 0
247 0
12 -11 0
248 0
-9 10 0
249 0
7 -8 0
250 0
-5 6 0
251 0
4 -3 0
252 0
-17 18 0
253 0
54 -53 0
254 0
-49 50 0
255 0
48 -47 0
256 0
-45 46 0
257 0
-43 44 0
258 0
42 -41 0
259 0
-39 40 0
260 0
38 -37 0
261 0
52 -51 0
262 0
-45 136 0
136 -262 263 0
-45 -262 263 0
-263 -46 135 0
135 -263 264 0
-46 -263 264 0
-264 144 -54 0
-54 -264 265 0
144 -264 265 0
-265 143 -53 0
-53 -265 266 0
143 -265 266 0
-266 -131 41 0
41 -266 267 0
-131 -266 267 0
-267 -132 42 0
42 -267 268 0
-132 -267 268 0
-268 133 -44 0
-44 -268 269 0
133 -268 269 0
-269 -134 43 0
43 -269 270 0
-134 -269 270 0
-270 38 -127 0
-127 -270 271 0
38 -270 271 0
-271 37 -128 0
-128 -271 272 0
37 -271 272 0
-272 -43 134 0
134 -272 273 0
-43 -272 273 0
-273 -44 133 0
133 -273 274 0
-44 -273 274 0
-274 136 -46 0
-46 -274 275 0
136 -274 275 0
-275 -135 45 0
45 -275 276 0
-135 -275 276 0
-276 52 -142 0
-142 -276 277 0
52 -276 277 0
-277 -127 38 0
38 -277 278 0
-127 -277 278 0
-278 -128 37 0
37 -278 279 0
-128 -278 279 0
-279 42 -131 0
-131 -279 280 0
42 -279 280 0
-280 41 -132 0
-132 -280 281 0
41 -280 281 0
-281 51 -141 0
-141 -281 282 0
51 -281 282 0
-282 -39 130 0
130 -282 283 0
-39 -282 283 0
-283 -40 129 0
129 -283 284 0
-40 -283 284 0
-284 -139 50 0
285 0
-153 160 0
160 -285 286 0
-153 -285 286 0
-286 -154 159 0
159 -286 287 0
-154 -286 287 0
-287 117 -124 0
-124 -287 288 0
117 -287 288 0
-288 172 -177 0
-177 -288 289 0
172 -288 289 0
-289 171 -178 0
-178 -289 290 0
171 -289 290 0
-290 118 -123 0
-123 -290 291 0
118 -290 291 0
-291 -63 70 0
70 -291 292 0
-63 -291 292 0
-292 -64 69 0
69 -292 293 0
-64 -292 293 0
-293 22 -39 0
-39 -293 294 0
22 -293 294 0
-294 21 -40 0
-40 -294 295 0
21 -294 295 0
-295 34 -46 0
-46 -295 296 0
34 -295 296 0
-296 33 -45 0
-45 -296 297 0
33 -296 297 0
-297 28 -51 0
-51 -297 298 0
28 -297 298 0
-298 27 -52 0
-52 -298 299 0
27 -298 299 0
-299 20 -38 0
-38 -299 300 0
20 -299 300 0
-300 19 -37 0
-37 -300 301 0
19 -300 301 0
-301 -99 106 0
106 -301 302 0
-99 -301 302 0
-302 -100 105 0
105 -302 303 0
-100 -302 303 0
-303 -105 100 0
100 -303 304 0
-105 -303 304 0
-304 -106 99 0
99 -304 305 0
-106 -304 305 0
-305 -9 16 0
16 -305 306 0
-9 -305 306 0
-306 -10 15 0
15 -306 307 0
-10 -306 307 0
-307 -15 10 0
10 -307 308 0
-15 -307 308 0
-308 -16 9 0
9 -308 309 0
-16 -308 309 0
-309 -29 47 0
47 -309 310 0
-29 -309 310 0
-310 -30 48 0
48 -310 311 0
-30 -310 311 0
-311 -31 49 0
49 -311 312 0
-31 -311 312 0
-312 -32 50 0
50 -312 313 0
-32 -312 313 0
-313 -35 54 0
54 -313 314 0
-35 -313 314 0
-314 -36 53 0
53 -314 315 0
-36 -314 315 0
-315 160 -153 0
-153 -315 316 0
160 -315 316 0
-316 159 -154 0
-154 -316 317 0
159 -316 317 0
-317 -45 141 0
141 -317 318 0
-45 -317 318 0
-318 -46 142 0
142 -318 319 0
-46 -318 319 0
-319 144 -35 0
-35 -319 320 0
144 -319 320 0
-320 143 -36 0
-36 -320 321 0
143 -320 321 0
-321 -131 24 0
24 -321 322 0
-131 -321 322 0
-322 -132 23 0
23 -322 323 0
-132 -322 323 0
-323 178 -171 0
-171 -323 324 0
178 -323 324 0
-324 177 -172 0
-172 -324 325 0
177 -324 325 0
-325 -123 118 0
118 -325 326 0
-123 -325 326 0
-326 133 -26 0
-26 -326 327 0
133 -326 327 0
-327 -134 25 0
25 -327 328 0
-134 -327 328 0
-328 -124 117 0
117 -328 329 0
-124 -328 329 0
-329 38 -128 0
-128 -329 330 0
38 -329 330 0
-330 -23 42 0
42 -330 331 0
-23 -330 331 0
-331 37 -127 0
-127 -331 332 0
37 -331 332 0
-332 -43 133 0
133 -332 333 0
-43 -332 333 0
-333 69 -64 0
-64 -333 334 0
69 -333 334 0
-334 -70 63 0
63 -334 335 0
-70 -334 335 0
-335 -24 41 0
41 -335 336 0
-24 -335 336 0
-336 -25 43 0
43 -336 337 0
-25 -336 337 0
-337 -81 88 0
88 -337 338 0
-81 -337 338 0
-338 -44 134 0
134 -338 339 0
-44 -338 339 0
-339 -26 44 0
44 -339 340 0
-26 -339 340 0
-340 -82 87 0
341 0
152 -160 0
-160 -341 342 0
152 -341 342 0
-342 -151 159 0
159 -342 343 0
-151 -342 343 0
-343 -115 123 0
123 -343 344 0
-115 -343 344 0
-344 -116 124 0
124 -344 345 0
-116 -344 345 0
-345 7 -16 0
-16 -345 346 0
7 -345 346 0
-346 8 -15 0
-15 -346 347 0
8 -346 347 0
-347 -169 177 0
177 -347 348 0
-169 -347 348 0
-348 -170 178 0
178 -348 349 0
-170 -348 349 0
-349 -91 128 0
128 -349 350 0
-91 -349 350 0
-350 92 -127 0
-127 -350 351 0
92 -350 351 0
-351 80 -88 0
-88 -351 352 0
80 -351 352 0
-352 79 -87 0
-87 -352 353 0
79 -352 353 0
-353 22 -39 0
-39 -353 354 0
22 -353 354 0
-354 21 -40 0
-40 -354 355 0
21 -354 355 0
-355 62 -70 0
-70 -355 356 0
62 -355 356 0
-356 61 -69 0
-69 -356 357 0
61 -356 357 0
-357 34 -44 0
-44 -357 358 0
34 -357 358 0
-358 33 -43 0
-43 -358 359 0
33 -358 359 0
-359 28 -45 0
-45 -359 360 0
28 -359 360 0
-360 27 -46 0
-46 -360 361 0
27 -360 361 0
-361 20 -37 0
-37 -361 362 0
20 -361 362 0
-362 19 -38 0
-38 -362 363 0
19 -362 363 0
-363 -99 135 0
135 -363 364 0
-99 -363 364 0
-364 -100 136 0
136 -364 365 0
-100 -364 365 0
-365 108 -143 0
-143 -365 366 0
108 -365 366 0
-366 107 -144 0
-144 -366 367 0
107 -366 367 0
-367 -103 140 0
140 -367 368 0
-103 -367 368 0
-368 -104 139 0
139 -368 369 0
-104 -368 369 0
-369 -105 134 0
134 -369 370 0
-105 -369 370 0
-370 -106 133 0
133 -370 371 0
-106 -370 371 0
-371 -98 142 0
142 -371 372 0
-98 -371 372 0
-372 97 -141 0
-141 -372 373 0
97 -372 373 0
-373 94 -129 0
-129 -373 374 0
94 -373 374 0
-374 93 -130 0
-130 -374 375 0
93 -374 375 0
-375 -15 8 0
8 -375 376 0
-15 -375 376 0
-376 -16 7 0
7 -376 377 0
-16 -376 377 0
-377 -29 48 0
48 -377 378 0
-29 -377 378 0
-378 -30 47 0
47 -378 379 0
-30 -378 379 0
-379 -31 50 0
50 -379 380 0
-31 -379 380 0
-380 -32 49 0
49 -380 381 0
-32 -380 381 0
-381 -35 54 0
54 -381 382 0
-35 -381 382 0
-382 -36 53 0
53 -382 383 0
-36 -382 383 0
-383 160 -152 0
-152 -383 384 0
160 -383 384 0
-384 159 -151 0
-151 -384 385 0
159 -384 385 0
-385 -45 27 0
27 -385 386 0
-45 -385 386 0
-386 -46 28 0
28 -386 387 0
-46 -386 387 0
-387 -102 137 0
137 -387 388 0
-102 -387 388 0
-388 101 -138 0
-138 -388 389 0
101 -388 389 0
-389 144 -107 0
-107 -389 390 0
144 -389 390 0
-390 143 -108 0
-108 -390 391 0
143 -390 391 0
-391 -131 96 0
96 -391 392 0
-131 -391 392 0
-392 -132 95 0
95 -392 393 0
-132 -392 393 0
-393 -95 132 0
132 -393 394 0
-95 -393 394 0
-394 178 -170 0
-170 -394 395 0
178 -394 395 0
-395 177 -169 0
396 0
-149 159 0
159 -396 397 0
-149 -396 397 0
-397 -150 160 0
160 -397 398 0
-150 -397 398 0
-398 -5 16 0
16 -398 399 0
-5 -398 399 0
-399 -6 15 0
15 -399 400 0
-6 -399 400 0
-400 -113 123 0
123 -400 401 0
-113 -400 401 0
-401 -114 124 0
124 -401 402 0
-114 -401 402 0
-402 -167 177 0
177 -402 403 0
-167 -402 403 0
-403 -168 178 0
178 -403 404 0
-168 -403 404 0
-404 72 -35 0
-35 -404 405 0
72 -404 405 0
-405 71 -36 0
-36 -405 406 0
71 -405 406 0
-406 -57 22 0
22 -406 407 0
-57 -406 407 0
-407 -58 21 0
21 -407 408 0
-58 -407 408 0
-408 56 -20 0
-20 -408 409 0
56 -408 409 0
-409 55 -19 0
-19 -409 410 0
55 -409 410 0
-410 -91 127 0
127 -410 411 0
-91 -410 411 0
-411 92 -128 0
-128 -411 412 0
92 -411 412 0
-412 -77 87 0
87 -412 413 0
-77 -412 413 0
-413 -78 88 0
88 -413 414 0
-78 -413 414 0
-414 66 -29 0
-29 -414 415 0
66 -414 415 0
-415 -63 28 0
28 -415 416 0
-63 -415 416 0
-416 -64 27 0
27 -416 417 0
-64 -416 417 0
-417 -65 30 0
30 -417 418 0
-65 -417 418 0
-418 22 -94 0
-94 -418 419 0
22 -418 419 0
-419 21 -93 0
-93 -419 420 0
21 -419 420 0
-420 62 -25 0
-25 -420 421 0
62 -420 421 0
-421 61 -26 0
-26 -421 422 0
61 -421 422 0
-422 60 -34 0
-34 -422 423 0
60 -422 423 0
-423 59 -33 0
-33 -423 424 0
59 -423 424 0
-424 34 -96 0
-96 -424 425 0
34 -424 425 0
-425 33 -95 0
-95 -425 426 0
33 -425 426 0
-426 28 -100 0
-100 -426 427 0
28 -426 427 0
-427 27 -99 0
-99 -427 428 0
27 -427 428 0
-428 20 -92 0
-92 -428 429 0
20 -428 429 0
-429 19 -91 0
-91 -429 430 0
19 -429 430 0
-430 -99 135 0
135 -430 431 0
-99 -430 431 0
-431 -100 136 0
136 -431 432 0
-100 -431 432 0
-432 108 -143 0
-143 -432 433 0
108 -432 433 0
-433 107 -144 0
-144 -433 434 0
107 -433 434 0
-434 -103 140 0
140 -434 435 0
-103 -434 435 0
-435 -104 139 0
139 -435 436 0
-104 -435 436 0
-436 -105 131 0
131 -436 437 0
-105 -436 437 0
-437 -106 132 0
132 -437 438 0
-106 -437 438 0
-438 -98 133 0
133 -438 439 0
-98 -438 439 0
-439 97 -134 0
-134 -439 440 0
97 -439 440 0
-440 94 -129 0
-129 -440 441 0
94 -440 441 0
-441 93 -130 0
-130 -441 442 0
93 -441 442 0
-442 -15 6 0
6 -442 443 0
-15 -442 443 0
-443 -16 5 0
5 -443 444 0
-16 -443 444 0
-444 -29 101 0
101 -444 445 0
-29 -444 445 0
-445 -30 102 0
102 -445 446 0
-30 -445 446 0
-446 -31 103 0
103 -446 447 0
-31 -446 447 0
-447 -32 104 0
104 -447 448 0
-32 -447 448 0
-448 -35 107 0
107 -448 449 0
-35 -448 449 0
-449 -36 108 0
108 -449 450 0
-36 -449 450 0
-450 160 -149 0
-149 -450 451 0
160 -450 451 0
-451 159 -150 0
-150 -451 452 0
159 -451 452 0
-452 -102 137 0
137 -452 453 0
-102 -452 453 0
-453 101 -138 0
-138 -453 454 0
101 -453 454 0
-454 144 -71 0
-71 -454 455 0
144 -454 455 0
-455 143 -72 0
-72 -455 456 0
143 -455 456 0
-456 -131 69 0
69 -456 457 0
-131 -456 457 0
-457 -132 70 0
70 -457 458 0
-132 -457 458 0
-458 -67 32 0
32 -458 459 0
-67 -458 459 0
-459 -95 141 0
141 -459 460 0
-95 -459 460 0
-460 178 -167 0
-167 -460 461 0
178 -460 461 0
-461 177 -168 0
-168 -461 462 0
177 -461 462 0
-462 -96 142 0
142 -462 463 0
-96 -462 463 0
-463 68 -31 0
-31 -463 464 0
68 -463 464 0
-464 -123 114 0
114 -464 465 0
-123 -464 465 0
-465 133 -61 0
-61 -465 466 0
133 -465 466 0
-466 -134 62 0
62 -466 467 0
-134 -466 467 0
-467 -124 113 0
113 -467 468 0
-124 -467 468 0
-468 -23 105 0
105 -468 469 0
-23 -468 469 0
-469 69 -23 0
-23 -469 470 0
69 -469 470 0
-470 -70 24 0
24 -470 471 0
-70 -470 471 0
-471 -24 106 0
472 0
156 -159 0
-159 -472 473 0
156 -472 473 0
-473 155 -160 0
-160 -473 474 0
155 -473 474 0
-474 72 -36 0
-36 -474 475 0
72 -474 475 0
-475 71 -35 0
-35 -475 476 0
71 -475 476 0
-476 -83 51 0
51 -476 477 0
-83 -476 477 0
-477 84 -52 0
-52 -477 478 0
84 -477 478 0
-478 -57 21 0
21 -478 479 0
-57 -478 479 0
-479 -58 22 0
22 -479 480 0
-58 -479 480 0
-480 -73 38 0
38 -480 481 0
-73 -480 481 0
-481 74 -37 0
-37 -481 482 0
74 -481 482 0
-482 56 -20 0
-20 -482 483 0
56 -482 483 0
-483 55 -19 0
-19 -483 484 0
55 -483 484 0
-484 -91 127 0
127 -484 485 0
-91 -484 485 0
-485 92 -128 0
-128 -485 486 0
92 -485 486 0
-486 12 -16 0
-16 -486 487 0
12 -486 487 0
-487 -11 15 0
15 -487 488 0
-11 -487 488 0
-488 80 -43 0
-43 -488 489 0
80 -488 489 0
-489 79 -44 0
-44 -489 490 0
79 -489 490 0
-490 173 -178 0
-178 -490 491 0
173 -490 491 0
-491 -174 177 0
177 -491 492 0
-174 -491 492 0
-492 -75 40 0
40 -492 493 0
-75 -492 493 0
-493 -76 39 0
39 -493 494 0
-76 -493 494 0
-494 -77 42 0
42 -494 495 0
-77 -494 495 0
-495 -78 41 0
41 -495 496 0
-78 -495 496 0
-496 66 -34 0
-34 -496 497 0
66 -496 497 0
-497 -63 27 0
27 -497 498 0
-63 -497 498 0
-498 -64 28 0
28 -498 499 0
-64 -498 499 0
-499 -65 33 0
33 -499 500 0
-65 -499 500 0
-500 22 -93 0
-93 -500 501 0
22 -500 501 0
-501 21 -94 0
-94 -501 502 0
21 -501 502 0
-502 -85 50 0
50 -502 503 0
-85 -502 503 0
-503 -86 49 0
49 -503 504 0
-86 -503 504 0
-504 -119 124 0
124 -504 505 0
-119 -504 505 0
-505 -120 123 0
123 -505 506 0
-120 -505 506 0
-506 62 -26 0
-26 -506 507 0
62 -506 507 0
-507 61 -25 0
-25 -507 508 0
61 -507 508 0
-508 60 -24 0
-24 -508 509 0
60 -508 509 0
-509 59 -23 0
-23 -509 510 0
59 -509 510 0
-510 34 -102 0
-102 -510 511 0
34 -510 511 0
-511 33 -101 0
-101 -511 512 0
33 -511 512 0
-512 28 -100 0
-100 -512 513 0
28 -512 513 0
-513 27 -99 0
-99 -513 514 0
27 -513 514 0
-514 20 -92 0
-92 -514 515 0
20 -514 515 0
-515 19 -91 0
-91 -515 516 0
19 -515 516 0
-516 -99 135 0
135 -516 517 0
-99 -516 517 0
-517 -100 136 0
136 -517 518 0
-100 -517 518 0
-518 108 -143 0
-143 -518 519 0
108 -518 519 0
-519 107 -144 0
-144 -519 520 0
107 -519 520 0
-520 -103 140 0
140 -520 521 0
-103 -520 521 0
-521 -104 139 0
139 -521 522 0
-104 -521 522 0
-522 -105 137 0
137 -522 523 0
-105 -522 523 0
-523 -106 138 0
138 -523 524 0
-106 -523 524 0
-524 -98 134 0
134 -524 525 0
-98 -524 525 0
-525 97 -133 0
-133 -525 526 0
97 -525 526 0
-526 -89 54 0
54 -526 527 0
-89 -526 527 0
-527 -90 53 0
53 -527 528 0
-90 -527 528 0
-528 94 -129 0
-129 -528 529 0
94 -528 529 0
-529 93 -130 0
-130 -529 530 0
93 -529 530 0
-530 -15 12 0
12 -530 531 0
-15 -530 531 0
-531 -16 11 0
11 -531 532 0
-16 -531 532 0
-532 -29 106 0
106 -532 533 0
-29 -532 533 0
-533 -30 105 0
105 -533 534 0
-30 -533 534 0
-534 -31 103 0
103 -534 535 0
-31 -534 535 0
-535 -32 104 0
104 -535 536 0
-32 -535 536 0
-536 -35 108 0
108 -536 537 0
-35 -536 537 0
-537 -36 107 0
107 -537 538 0
-36 -537 538 0
-538 160 -155 0
-155 -538 539 0
160 -538 539 0
-539 159 -156 0
-156 -539 540 0
159 -539 540 0
-540 -45 63 0
63 -540 541 0
-45 -540 541 0
-541 -46 64 0
64 -541 542 0
-46 -541 542 0
-542 -102 142 0
142 -542 543 0
-102 -542 543 0
-543 101 -141 0
-141 -543 544 0
101 -543 544 0
-544 144 -89 0
-89 -544 545 0
144 -544 545 0
-545 143 -90 0
-90 -545 546 0
143 -545 546 0
-546 -131 78 0
78 -546 547 0
-131 -546 547 0
-547 -132 77 0
77 -547 548 0
-132 -547 548 0
-548 -67 31 0
31 -548 549 0
-67 -548 549 0
-549 -95 131 0
131 -549 550 0
-95 -549 550 0
-550 178 -173 0
-173 -550 551 0
178 -550 551 0
-551 177 -174 0
-174 -551 552 0
177 -551 552 0
-552 -96 132 0
132 -552 553 0
-96 -552 553 0
-553 68 -32 0
-32 -553 554 0
68 -553 554 0
-554 -123 120 0
120 -554 555 0
-123 -554 555 0
-555 133 -79 0
-79 -555 556 0
133 -555 556 0
-556 -134 80 0
80 -556 557 0
-134 -556 557 0
-557 -124 119 0
119 -557 558 0
-124 -557 558 0
-558 38 -55 0
-55 -558 559 0
38 -558 559 0
-559 -23 95 0
95 -559 560 0
-23 -559 560 0
-560 37 -56 0
-56 -560 561 0
37 -560 561 0
-561 -43 61 0
61 -561 562 0
-43 -561 562 0
-562 69 -29 0
-29 -562 563 0
69 -562 563 0
-563 -70 30 0
30 -563 564 0
-70 -563 564 0
-564 -24 96 0
96 -564 565 0
-24 -564 565 0
-565 -25 98 0
98 -565 566 0
-25 -565 566 0
-566 -81 46 0
46 -566 567 0
-81 -566 567 0
-567 -44 62 0
62 -567 568 0
-44 -567 568 0
-568 -26 97 0
97 -568 569 0
-26 -568 569 0
-569 -82 45 0
45 -569 570 0
-82 -569 570 0
-570 -87 47 0
47 -570 571 0
-87 -570 571 0
-571 -88 48 0
48 -571 572 0
-88 -571 572 0
-572 136 -81 0
-81 -572 573 0
136 -572 573 0
-573 -135 82 0
574 0
147 -169 0
-169 -574 575 0
147 -574 575 0
-575 -148 170 0
170 -575 576 0
-148 -575 576 0
-576 152 -163 0
-163 -576 577 0
152 -576 577 0
-577 -146 177 0
177 -577 578 0
-146 -577 578 0
-578 -151 164 0
164 -578 579 0
-151 -578 579 0
-579 145 -178 0
-178 -579 580 0
145 -579 580 0
-580 -149 180 0
180 -580 581 0
-149 -580 581 0
-581 -1 34 0
34 -581 582 0
-1 -581 582 0
-582 -150 179 0
179 -582 583 0
-150 -582 583 0
-583 2 -33 0
-33 -583 584 0
2 -583 584 0
-584 14 -24 0
-24 -584 585 0
14 -584 585 0
-585 13 -23 0
-23 -585 586 0
13 -585 586 0
-586 -121 114 0
114 -586 587 0
-121 -586 587 0
-587 -122 113 0
113 -587 588 0
-122 -587 588 0
-588 180 -39 0
-39 -588 589 0
180 -588 589 0
-589 126 -111 0
-111 -589 590 0
126 -589 590 0
-590 179 -40 0
-40 -590 591 0
179 -590 591 0
-591 -17 22 0
22 -591 592 0
-17 -591 592 0
-592 -18 21 0
21 -592 593 0
-18 -592 593 0
-593 125 -112 0
-112 -593 594 0
125 -593 594 0
-594 162 -165 0
-165 -594 595 0
162 -594 595 0
-595 161 -166 0
-166 -595 596 0
161 -595 596 0
-596 156 -176 0
-176 -596 597 0
156 -596 597 0
-597 176 -42 0
-42 -597 598 0
176 -597 598 0
-598 175 -41 0
-41 -598 599 0
175 -598 599 0
-599 155 -175 0
-175 -599 600 0
155 -599 600 0
-600 -153 173 0
173 -600 601 0
-153 -600 601 0
-601 -154 174 0
174 -601 602 0
-154 -601 602 0
-602 -5 35 0
35 -602 603 0
-5 -602 603 0
-603 -6 36 0
36 -603 604 0
-6 -603 604 0
-604 -115 110 0
110 -604 605 0
-115 -604 605 0
-605 -116 109 0
109 -605 606 0
-116 -605 606 0
-606 -113 125 0
125 -606 607 0
-113 -606 607 0
-607 -114 126 0
126 -607 608 0
-114 -607 608 0
-608 4 -25 0
-25 -608 609 0
4 -608 609 0
-609 3 -26 0
-26 -609 610 0
3 -609 610 0
-610 -163 51 0
51 -610 611 0
-163 -610 611 0
-611 166 -43 0
-43 -611 612 0
166 -611 612 0
-612 165 -44 0
-44 -612 613 0
165 -612 613 0
-613 164 -52 0
-52 -613 614 0
164 -613 614 0
-614 -167 53 0
53 -614 615 0
-167 -614 615 0
-615 -109 124 0
124 -615 616 0
-109 -615 616 0
-616 -110 123 0
123 -616 617 0
-110 -616 617 0
-617 -168 54 0
54 -617 618 0
-168 -617 618 0
-618 158 -168 0
-168 -618 619 0
158 -618 619 0
-619 157 -167 0
-167 -619 620 0
157 -619 620 0
-620 72 -75 0
-75 -620 621 0
72 -620 621 0
-621 112 -116 0
-116 -621 622 0
112 -621 622 0
-622 111 -115 0
-115 -622 623 0
111 -622 623 0
-623 71 -76 0
-76 -623 624 0
71 -623 624 0
-624 7 -20 0
-20 -624 625 0
7 -624 625 0
-625 8 -19 0
-19 -625 626 0
8 -625 626 0
-626 -169 37 0
37 -626 627 0
-169 -626 627 0
-627 -83 157 0
157 -627 628 0
-83 -627 628 0
-628 -170 38 0
38 -628 629 0
-170 -628 629 0
-629 84 -158 0
-158 -629 630 0
84 -629 630 0
-630 -57 79 0
79 -630 631 0
-57 -630 631 0
-631 -58 80 0
80 -631 632 0
-58 -631 632 0
-632 117 -119 0
-119 -632 633 0
117 -632 633 0
-633 -73 159 0
159 -633 634 0
-73 -633 634 0
-634 74 -160 0
-160 -634 635 0
74 -634 635 0
-635 56 -87 0
-87 -635 636 0
56 -635 636 0
-636 55 -88 0
-88 -636 637 0
55 -636 637 0
-637 172 -47 0
-47 -637 638 0
172 -637 638 0
-638 171 -48 0
-48 -638 639 0
171 -638 639 0
-639 118 -120 0
-120 -639 640 0
118 -639 640 0
-640 -91 15 0
15 -640 641 0
-91 -640 641 0
-641 92 -16 0
-16 -641 642 0
92 -641 642 0
-642 12 -31 0
-31 -642 643 0
12 -642 643 0
-643 -11 32 0
32 -643 644 0
-11 -643 644 0
-644 80 -145 0
-145 -644 645 0
80 -644 645 0
-645 79 -146 0
-146 -645 646 0
79 -645 646 0
-646 173 -49 0
-49 -646 647 0
173 -646 647 0
-647 -174 50 0
50 -647 648 0
-174 -647 648 0
-648 -75 152 0
152 -648 649 0
-75 -648 649 0
-649 -76 151 0
151 -649 650 0
-76 -649 650 0
-650 -77 162 0
162 -650 651 0
-77 -650 651 0
-651 -78 161 0
161 -651 652 0
-78 -651 652 0
-652 66 -86 0
-86 -652 653 0
66 -652 653 0
-653 -63 84 0
84 -653 654 0
-63 -653 654 0
-654 -64 83 0
83 -654 655 0
-64 -654 655 0
-655 -65 85 0
85 -655 656 0
-65 -655 656 0
-656 22 -133 0
-133 -656 657 0
22 -656 657 0
-657 21 -134 0
-134 -657 658 0
21 -657 658 0
-658 -85 149 0
149 -658 659 0
-85 -658 659 0
-659 -86 150 0
150 -659 660 0
-86 -659 660 0
-660 -119 121 0
121 -660 661 0
-119 -660 661 0
-661 -120 122 0
122 -661 662 0
-120 -661 662 0
-662 62 -73 0
-73 -662 663 0
62 -662 663 0
-663 61 -74 0
-74 -663 664 0
61 -663 664 0
-664 60 -89 0
-89 -664 665 0
60 -664 665 0
-665 59 -90 0
-90 -665 666 0
59 -665 666 0
-666 34 -135 0
-135 -666 667 0
34 -666 667 0
-667 33 -136 0
-136 -667 668 0
33 -667 668 0
-668 28 -138 0
-138 -668 669 0
28 -668 669 0
-669 27 -137 0
-137 -669 670 0
27 -669 670 0
-670 20 -142 0
-142 -670 671 0
20 -670 671 0
-671 19 -141 0
-141 -671 672 0
19 -671 672 0
-672 -99 12 0
12 -672 673 0
-99 -672 673 0
-673 -100 11 0
11 -673 674 0
-100 -673 674 0
-674 108 -3 0
-3 -674 675 0
108 -674 675 0
-675 107 -4 0
-4 -675 676 0
107 -675 676 0
-676 -103 6 0
6 -676 677 0
-103 -676 677 0
-677 -104 5 0
5 -677 678 0
-104 -677 678 0
-678 -105 10 0
10 -678 679 0
-105 -678 679 0
-679 -106 9 0
9 -679 680 0
-106 -679 680 0
-680 -98 2 0
2 -680 681 0
-98 -680 681 0
-681 -9 29 0
29 -681 682 0
-9 -681 682 0
-682 -10 30 0
30 -682 683 0
-10 -682 683 0
-683 97 -1 0
-1 -683 684 0
97 -683 684 0
-684 -89 147 0
147 -684 685 0
-89 -684 685 0
-685 -90 148 0
148 -685 686 0
-90 -685 686 0
-686 94 -8 0
-8 -686 687 0
94 -686 687 0
-687 93 -7 0
-7 -687 688 0
93 -687 688 0
-688 -15 27 0
27 -688 689 0
-15 -688 689 0
-689 -16 28 0
28 -689 690 0
-16 -689 690 0
-690 -29 139 0
139 -690 691 0
-29 -690 691 0
-691 -30 140 0
140 -691 692 0
-30 -691 692 0
-692 -31 131 0
131 -692 693 0
-31 -692 693 0
-693 -32 132 0
132 -693 694 0
-32 -693 694 0
-694 -35 129 0
129 -694 695 0
-35 -694 695 0
-695 -36 130 0
130 -695 696 0
-36 -695 696 0
-696 160 -171 0
-171 -696 697 0
160 -696 697 0
-697 159 -172 0
-172 -697 698 0
159 -697 698 0
-698 -45 101 0
101 -698 699 0
-45 -698 699 0
-699 -46 102 0
102 -699 700 0
-46 -699 700 0
-700 -102 14 0
14 -700 701 0
-102 -700 701 0
-701 101 -13 0
-13 -701 702 0
101 -701 702 0
-702 144 -58 0
-58 -702 703 0
144 -702 703 0
-703 143 -57 0
-57 -703 704 0
143 -703 704 0
-704 -131 72 0
72 -704 705 0
-131 -704 705 0
-705 -132 71 0
71 -705 706 0
-132 -705 706 0
-706 -67 77 0
77 -706 707 0
-67 -706 707 0
-707 -95 18 0
18 -707 708 0
-95 -707 708 0
-708 178 -45 0
-45 -708 709 0
178 -708 709 0
-709 177 -46 0
-46 -709 710 0
177 -709 710 0
-710 -96 17 0
17 -710 711 0
-96 -710 711 0
-711 68 -78 0
-78 -711 712 0
68 -711 712 0
-712 -123 117 0
117 -712 713 0
-123 -712 713 0
-713 133 -56 0
-56 -713 714 0
133 -713 714 0
-714 -134 55 0
55 -714 715 0
-134 -714 715 0
-715 -124 118 0
118 -715 716 0
-124 -715 716 0
-716 38 -105 0
-105 -716 717 0
38 -716 717 0
-717 -23 143 0
143 -717 718 0
-23 -717 718 0
-718 37 -106 0
-106 -718 719 0
37 -718 719 0
-719 -43 92 0
92 -719 720 0
-43 -719 720 0
-720 69 -82 0
-82 -720 721 0
69 -720 721 0
-721 -70 81 0
81 -721 722 0
-70 -721 722 0
-722 -24 144 0
144 -722 723 0
-24 -722 723 0
-723 -25 127 0
127 -723 724 0
-25 -723 724 0
-724 -81 156 0
156 -724 725 0
-81 -724 725 0
-725 -44 91 0
91 -725 726 0
-44 -725 726 0
-726 -26 128 0
128 -726 727 0
-26 -726 727 0
-727 -82 155 0
155 -727 728 0
-82 -727 728 0
-728 -87 154 0
154 -728 729 0
-87 -728 729 0
-729 -88 153 0
153 -729 730 0
-88 -729 730 0
-730 136 -66 0
-66 -730 731 0
136 -730 731 0
-731 -135 65 0
65 -731 732 0
-135 -731 732 0
-732 52 -99 0
-99 -732 733 0
52 -732 733 0
-733 -127 70 0
70 -733 734 0
-127 -733 734 0
-734 -128 69 0
69 -734 735 0
-128 -734 735 0
-735 42 -108 0
-108 -735 736 0
42 -735 736 0
-736 41 -107 0
-107 -736 737 0
41 -736 737 0
-737 51 -100 0
-100 -737 738 0
51 -737 738 0
-738 -39 98 0
98 -738 739 0
-39 -738 739 0
-739 -40 97 0
740 0
147 -159 0
-159 -740 741 0
147 -740 741 0
-741 -148 160 0
160 -741 742 0
-148 -741 742 0
-742 152 -150 0
-150 -742 743 0
152 -742 743 0
-743 -146 156 0
156 -743 744 0
-146 -743 744 0
-744 -151 149 0
149 -744 745 0
-151 -744 745 0
-745 145 -155 0
-155 -745 746 0
145 -745 746 0
-746 -149 151 0
151 -746 747 0
-149 -746 747 0
-747 -1 119 0
119 -747 748 0
-1 -747 748 0
-748 -150 152 0
152 -748 749 0
-150 -748 749 0
-749 2 -120 0
-120 -749 750 0
2 -749 750 0
-750 14 -125 0
-125 -750 751 0
14 -750 751 0
-751 13 -126 0
-126 -751 752 0
13 -751 752 0
-752 -121 72 0
72 -752 753 0
-121 -752 753 0
-753 -122 71 0
71 -753 754 0
-122 -753 754 0
-754 180 -27 0
-27 -754 755 0
180 -754 755 0
-755 126 -64 0
-64 -755 756 0
126 -755 756 0
-756 179 -28 0
-28 -756 757 0
179 -756 757 0
-757 -17 117 0
117 -757 758 0
-17 -757 758 0
-758 -18 118 0
118 -758 759 0
-18 -758 759 0
-759 125 -63 0
-63 -759 760 0
125 -759 760 0
-760 162 -154 0
-154 -760 761 0
162 -760 761 0
-761 161 -153 0
-153 -761 762 0
161 -761 762 0
-762 156 -145 0
-145 -762 763 0
156 -762 763 0
-763 176 -35 0
-35 -763 764 0
176 -763 764 0
-764 175 -36 0
-36 -764 765 0
175 -764 765 0
-765 155 -146 0
-146 -765 766 0
155 -765 766 0
-766 -153 148 0
148 -766 767 0
-153 -766 767 0
-767 -154 147 0
147 -767 768 0
-154 -767 768 0
-768 -5 115 0
115 -768 769 0
-5 -768 769 0
-769 -6 116 0
116 -769 770 0
-6 -769 770 0
-770 -115 59 0
59 -770 771 0
-115 -770 771 0
-771 -116 60 0
60 -771 772 0
-116 -771 772 0
-772 -113 62 0
62 -772 773 0
-113 -772 773 0
-773 -114 61 0
61 -773 774 0
-114 -773 774 0
-774 4 -124 0
-124 -774 775 0
4 -774 775 0
-775 3 -123 0
-123 -775 776 0
3 -775 776 0
-776 -163 30 0
30 -776 777 0
-163 -776 777 0
-777 166 -33 0
-33 -777 778 0
166 -777 778 0
-778 165 -34 0
-34 -778 779 0
165 -778 779 0
-779 164 -29 0
-29 -779 780 0
164 -779 780 0
-780 -167 26 0
26 -780 781 0
-167 -780 781 0
-781 -109 66 0
66 -781 782 0
-109 -781 782 0
-782 -110 65 0
65 -782 783 0
-110 -782 783 0
-783 -168 25 0
25 -783 784 0
-168 -783 784 0
-784 158 -162 0
-162 -784 785 0
158 -784 785 0
-785 157 -161 0
-161 -785 786 0
157 -785 786 0
-786 72 -81 0
-81 -786 787 0
72 -786 787 0
-787 112 -69 0
-69 -787 788 0
112 -787 788 0
-788 111 -70 0
-70 -788 789 0
111 -788 789 0
-789 71 -82 0
-82 -789 790 0
71 -789 790 0
-790 7 -113 0
-113 -790 791 0
7 -790 791 0
-791 8 -114 0
-114 -791 792 0
8 -791 792 0
-792 -169 23 0
23 -792 793 0
-169 -792 793 0
-793 -83 128 0
128 -793 794 0
-83 -793 794 0
-794 -170 24 0
24 -794 795 0
-170 -794 795 0
-795 84 -127 0
-127 -795 796 0
84 -795 796 0
-796 -57 87 0
87 -796 797 0
-57 -796 797 0
-797 -58 88 0
88 -797 798 0
-58 -797 798 0
-798 117 -58 0
-58 -798 799 0
117 -798 799 0
-799 -73 138 0
138 -799 800 0
-73 -799 800 0
-800 74 -137 0
-137 -800 801 0
74 -800 801 0
-801 56 -84 0
-84 -801 802 0
56 -801 802 0
-802 55 -83 0
-83 -802 803 0
55 -802 803 0
-803 172 -21 0
-21 -803 804 0
172 -803 804 0
-804 171 -22 0
-22 -804 805 0
171 -804 805 0
-805 118 -57 0
-57 -805 806 0
118 -805 806 0
-806 -91 48 0
48 -806 807 0
-91 -806 807 0
-807 92 -47 0
-47 -807 808 0
92 -807 808 0
-808 12 -109 0
-109 -808 809 0
12 -808 809 0
-809 -11 110 0
110 -809 810 0
-11 -809 810 0
-810 80 -131 0
-131 -810 811 0
80 -810 811 0
-811 79 -132 0
-132 -811 812 0
79 -811 812 0
-812 173 -19 0
-19 -812 813 0
173 -812 813 0
-813 -174 20 0
20 -813 814 0
-174 -813 814 0
-814 -75 141 0
141 -814 815 0
-75 -814 815 0
-815 -76 142 0
142 -815 816 0
-76 -815 816 0
-816 -77 133 0
133 -816 817 0
-77 -816 817 0
-817 -78 134 0
134 -817 818 0
-78 -817 818 0
-818 66 -74 0
-74 -818 819 0
66 -818 819 0
-819 -63 75 0
75 -819 820 0
-63 -819 820 0
-820 -64 76 0
76 -820 821 0
-64 -820 821 0
-821 -65 73 0
73 -821 822 0
-65 -821 822 0
-822 22 -105 0
-105 -822 823 0
22 -822 823 0
-823 21 -106 0
-106 -823 824 0
21 -823 824 0
-824 -85 144 0
144 -824 825 0
-85 -824 825 0
-825 -86 143 0
143 -825 826 0
-86 -825 826 0
-826 -119 55 0
55 -826 827 0
-119 -826 827 0
-827 -120 56 0
56 -827 828 0
-120 -827 828 0
-828 62 -77 0
-77 -828 829 0
62 -828 829 0
-829 61 -78 0
-78 -829 830 0
61 -829 830 0
-830 60 -80 0
-80 -830 831 0
60 -830 831 0
-831 59 -79 0
-79 -831 832 0
59 -831 832 0
-832 34 -103 0
-103 -832 833 0
34 -832 833 0
-833 33 -104 0
-104 -833 834 0
33 -833 834 0
-834 28 -94 0
-94 -834 835 0
28 -834 835 0
-835 27 -93 0
-93 -835 836 0
27 -835 836 0
-836 20 -102 0
-102 -836 837 0
20 -836 837 0
-837 19 -101 0
-101 -837 838 0
19 -837 838 0
-838 -99 39 0
39 -838 839 0
-99 -838 839 0
-839 -100 40 0
40 -839 840 0
-100 -839 840 0
-840 108 -46 0
-46 -840 841 0
108 -840 841 0
-841 107 -45 0
-45 -841 842 0
107 -841 842 0
-842 -103 54 0
54 -842 843 0
-103 -842 843 0
-843 -104 53 0
53 -843 844 0
-104 -843 844 0
-844 -105 49 0
49 -844 845 0
-105 -844 845 0
-845 -106 50 0
50 -845 846 0
-106 -845 846 0
-846 -98 42 0
42 -846 847 0
-98 -846 847 0
-847 -9 112 0
112 -847 848 0
-9 -847 848 0
-848 -10 111 0
111 -848 849 0
-10 -848 849 0
-849 97 -41 0
-41 -849 850 0
97 -849 850 0
-850 -89 135 0
135 -850 851 0
-89 -850 851 0
-851 -90 136 0
136 -851 852 0
-90 -851 852 0
-852 94 -51 0
-51 -852 853 0
94 -852 853 0
-853 93 -52 0
-52 -853 854 0
93 -853 854 0
-854 -15 122 0
122 -854 855 0
-15 -854 855 0
-855 -16 121 0
121 -855 856 0
-16 -855 856 0
-856 -29 92 0
92 -856 857 0
-29 -856 857 0
-857 -30 91 0
91 -857 858 0
-30 -857 858 0
-858 -31 108 0
108 -858 859 0
-31 -858 859 0
-859 -32 107 0
107 -859 860 0
-32 -859 860 0
-860 -35 99 0
99 -860 861 0
-35 -860 861 0
-861 -36 100 0
100 -861 862 0
-36 -861 862 0
-862 160 -157 0
-157 -862 863 0
160 -862 863 0
-863 159 -158 0
-158 -863 864 0
159 -863 864 0
-864 -45 4 0
4 -864 865 0
-45 -864 865 0
-865 -46 3 0
3 -865 866 0
-46 -865 866 0
-866 -102 37 0
37 -866 867 0
-102 -866 867 0
-867 101 -38 0
-38 -867 868 0
101 -867 868 0
-868 144 -171 0
-171 -868 869 0
144 -868 869 0
-869 143 -172 0
-172 -869 870 0
143 -869 870 0
-870 -131 170 0
170 -870 871 0
-131 -870 871 0
-871 -132 169 0
169 -871 872 0
-132 -871 872 0
-872 -67 89 0
89 -872 873 0
-67 -872 873 0
-873 -95 44 0
44 -873 874 0
-95 -873 874 0
-874 178 -31 0
-31 -874 875 0
178 -874 875 0
-875 177 -32 0
-32 -875 876 0
177 -875 876 0
-876 -96 43 0
43 -876 877 0
-96 -876 877 0
-877 68 -90 0
-90 -877 878 0
68 -877 878 0
-878 -123 67 0
67 -878 879 0
-123 -878 879 0
-879 133 -167 0
-167 -879 880 0
133 -879 880 0
-880 -134 168 0
168 -880 881 0
-134 -880 881 0
-881 -124 68 0
68 -881 882 0
-124 -881 882 0
-882 38 -12 0
-12 -882 883 0
38 -882 883 0
-883 -23 97 0
97 -883 884 0
-23 -883 884 0
-884 37 -11 0
-11 -884 885 0
37 -884 885 0
-885 -43 6 0
6 -885 886 0
-43 -885 886 0
-886 69 -85 0
-85 -886 887 0
69 -886 887 0
-887 -70 86 0
86 -887 888 0
-70 -887 888 0
-888 -24 98 0
98 -888 889 0
-24 -888 889 0
-889 -25 95 0
95 -889 890 0
-25 -889 890 0
-890 -81 129 0
129 -890 891 0
-81 -890 891 0
-891 -44 5 0
5 -891 892 0
-44 -891 892 0
-892 -26 96 0
96 -892 893 0
-26 -892 893 0
-893 -82 130 0
130 -893 894 0
-82 -893 894 0
-894 -87 139 0
139 -894 895 0
-87 -894 895 0
-895 -88 140 0
140 -895 896 0
-88 -895 896 0
-896 136 -166 0
-166 -896 897 0
136 -896 897 0
-897 -135 165 0
165 -897 898 0
-135 -897 898 0
-898 52 -13 0
-13 -898 899 0
52 -898 899 0
-899 -127 173 0
173 -899 900 0
-127 -899 900 0
-900 -128 174 0
174 -900 901 0
-128 -900 901 0
-901 42 -8 0
-8 -901 902 0
42 -901 902 0
-902 41 -7 0
-7 -902 903 0
41 -902 903 0
-903 51 -14 0
-14 -903 904 0
51 -903 904 0
-904 -39 15 0
15 -904 905 0
-39 -904 905 0
-905 -40 16 0
16 -905 906 0
-40 -905 906 0
-906 -139 179 0
179 -906 907 0
-139 -906 907 0
-907 -140 180 0
180 -907 908 0
-140 -907 908 0
-908 142 -175 0
-175 -908 909 0
142 -908 909 0
-909 137 -163 0
-163 -909 910 0
137 -909 910 0
-910 -138 164 0
911 0
147 -159 0
-159 -911 912 0
147 -911 912 0
-912 -148 160 0
160 -912 913 0
-148 -912 913 0
-913 152 -150 0
-150 -913 914 0
152 -913 914 0
-914 -146 156 0
156 -914 915 0
-146 -914 915 0
-915 -151 149 0
149 -915 916 0
-151 -915 916 0
-916 145 -155 0
-155 -916 917 0
145 -916 917 0
-917 -149 151 0
151 -917 918 0
-149 -917 918 0
-918 -1 119 0
119 -918 919 0
-1 -918 919 0
-919 -150 152 0
152 -919 920 0
-150 -919 920 0
-920 2 -120 0
-120 -920 921 0
2 -920 921 0
-921 14 -125 0
-125 -921 922 0
14 -921 922 0
-922 13 -126 0
-126 -922 923 0
13 -922 923 0
-923 -121 72 0
72 -923 924 0
-121 -923 924 0
-924 -122 71 0
71 -924 925 0
-122 -924 925 0
-925 180 -27 0
-27 -925 926 0
180 -925 926 0
-926 126 -64 0
-64 -926 927 0
126 -926 927 0
-927 179 -28 0
-28 -927 928 0
179 -927 928 0
-928 -17 117 0
117 -928 929 0
-17 -928 929 0
-929 -18 118 0
118 -929 930 0
-18 -929 930 0
-930 125 -63 0
-63 -930 931 0
125 -930 931 0
-931 162 -154 0
-154 -931 932 0
162 -931 932 0
-932 161 -153 0
-153 -932 933 0
161 -932 933 0
-933 156 -145 0
-145 -933 934 0
156 -933 934 0
-934 176 -35 0
-35 -934 935 0
176 -934 935 0
-935 175 -36 0
-36 -935 936 0
175 -935 936 0
-936 155 -146 0
-146 -936 937 0
155 -936 937 0
-937 -153 148 0
148 -937 938 0
-153 -937 938 0
-938 -154 147 0
147 -938 939 0
-154 -938 939 0
-939 -5 115 0
115 -939 940 0
-5 -939 940 0
-940 -6 116 0
116 -940 941 0
-6 -940 941 0
-941 -115 59 0
59 -941 942 0
-115 -941 942 0
-942 -116 60 0
60 -942 943 0
-116 -942 943 0
-943 -113 62 0
62 -943 944 0
-113 -943 944 0
-944 -114 61 0
61 -944 945 0
-114 -944 945 0
-945 4 -124 0
-124 -945 946 0
4 -945 946 0
-946 3 -123 0
-123 -946 947 0
3 -946 947 0
-947 -163 30 0
30 -947 948 0
-163 -947 948 0
-948 166 -33 0
-33 -948 949 0
166 -948 949 0
-949 165 -34 0
-34 -949 950 0
165 -949 950 0
-950 164 -29 0
-29 -950 951 0
164 -950 951 0
-951 -167 26 0
26 -951 952 0
-167 -951 952 0
-952 -109 66 0
66 -952 953 0
-109 -952 953 0
-953 -110 65 0
65 -953 954 0
-110 -953 954 0
-954 -168 25 0
25 -954 955 0
-168 -954 955 0
-955 158 -162 0
-162 -955 956 0
158 -955 956 0
-956 157 -161 0
-161 -956 957 0
157 -956 957 0
-957 72 -81 0
-81 -957 958 0
72 -957 958 0
-958 112 -69 0
-69 -958 959 0
112 -958 959 0
-959 111 -70 0
-70 -959 960 0
111 -959 960 0
-960 71 -82 0
-82 -960 961 0
71 -960 961 0
-961 7 -113 0
-113 -961 962 0
7 -961 962 0
-962 8 -114 0
-114 -962 963 0
8 -962 963 0
-963 -169 23 0
23 -963 964 0
-169 -963 964 0
-964 -83 128 0
128 -964 965 0
-83 -964 965 0
-965 -170 24 0
24 -965 966 0
-170 -965 966 0
-966 84 -127 0
-127 -966 967 0
84 -966 967 0
-967 -57 87 0
87 -967 968 0
-57 -967 968 0
-968 -58 88 0
88 -968 969 0
-58 -968 969 0
-969 117 -58 0
-58 -969 970 0
117 -969 970 0
-970 -73 138 0
138 -970 971 0
-73 -970 971 0
-971 74 -137 0
-137 -971 972 0
74 -971 972 0
-972 56 -84 0
-84 -972 973 0
56 -972 973 0
-973 55 -83 0
-83 -973 974 0
55 -973 974 0
-974 172 -21 0
-21 -974 975 0
172 -974 975 0
-975 171 -22 0
-22 -975 976 0
171 -975 976 0
-976 118 -57 0
-57 -976 977 0
118 -976 977 0
-977 -91 48 0
48 -977 978 0
-91 -977 978 0
-978 92 -47 0
-47 -978 979 0
92 -978 979 0
-979 12 -109 0
-109 -979 980 0
12 -979 980 0
-980 -11 110 0
110 -980 981 0
-11 -980 981 0
-981 80 -131 0
-131 -981 982 0
80 -981 982 0
-982 79 -132 0
-132 -982 983 0
79 -982 983 0
-983 173 -19 0
-19 -983 984 0
173 -983 984 0
-984 -174 20 0
20 -984 985 0
-174 -984 985 0
-985 -75 141 0
141 -985 986 0
-75 -985 986 0
-986 -76 142 0
142 -986 987 0
-76 -986 987 0
-987 -77 133 0
133 -987 988 0
-77 -987 988 0
-988 -78 134 0
134 -988 989 0
-78 -988 989 0
-989 66 -74 0
-74 -989 990 0
66 -989 990 0
-990 -63 75 0
75 -990 991 0
-63 -990 991 0
-991 -64 76 0
76 -991 992 0
-64 -991 992 0
-992 -65 73 0
73 -992 993 0
-65 -992 993 0
-993 22 -105 0
-105 -993 994 0
22 -993 994 0
-994 21 -106 0
-106 -994 995 0
21 -994 995 0
-995 -85 144 0
144 -995 996 0
-85 -995 996 0
-996 -86 143 0
143 -996 997 0
-86 -996 997 0
-997 -119 55 0
55 -997 998 0
-119 -997 998 0
-998 -120 56 0
56 -998 999 0
-120 -998 999 0
-999 62 -77 0
-77 -999 1000 0
62 -999 1000 0
-1000 61 -78 0
-78 -1000 1001 0
61 -1000 1001 0
-1001 60 -80 0
-80 -1001 1002 0
60 -1001 1002 0
-1002 59 -79 0
-79 -1002 1003 0
59 -1002 1003 0
-1003 34 -104 0
-104 -1003 1004 0
34 -1003 1004 0
-1004 33 -103 0
-103 -1004 1005 0
33 -1004 1005 0
-1005 28 -94 0
-94 -1005 1006 0
28 -1005 1006 0
-1006 27 -93 0
-93 -1006 1007 0
27 -1006 1007 0
-1007 20 -102 0
-102 -1007 1008 0
20 -1007 1008 0
-1008 19 -101 0
-101 -1008 1009 0
19 -1008 1009 0
-1009 -99 39 0
39 -1009 1010 0
-99 -1009 1010 0
-1010 -100 40 0
40 -1010 1011 0
-100 -1010 1011 0
-1011 108 -46 0
-46 -1011 1012 0
108 -1011 1012 0
-1012 107 -45 0
-45 -1012 1013 0
107 -1012 1013 0
-1013 -103 54 0
54 -1013 1014 0
-103 -1013 1014 0
-1014 -104 53 0
53 -1014 1015 0
-104 -1014 1015 0
-1015 -105 49 0
49 -1015 1016 0
-105 -1015 1016 0
-1016 -106 50 0
50 -1016 1017 0
-106 -1016 1017 0
-1017 -98 42 0
42 -1017 1018 0
-98 -1017 1018 0
-1018 -9 112 0
112 -1018 1019 0
-9 -1018 1019 0
-1019 -10 111 0
111 -1019 1020 0
-10 -1019 1020 0
-1020 97 -41 0
-41 -1020 1021 0
97 -1020 1021 0
-1021 -89 135 0
135 -1021 1022 0
-89 -1021 1022 0
-1022 -90 136 0
136 -1022 1023 0
-90 -1022 1023 0
-1023 94 -51 0
-51 -1023 1024 0
94 -1023 1024 0
-1024 93 -52 0
-52 -1024 1025 0
93 -1024 1025 0
-1025 -15 122 0
122 -1025 1026 0
-15 -1025 1026 0
-1026 -16 121 0
121 -1026 1027 0
-16 -1026 1027 0
-1027 -29 92 0
92 -1027 1028 0
-29 -1027 1028 0
-1028 -30 91 0
91 -1028 1029 0
-30 -1028 1029 0
-1029 -31 108 0
108 -1029 1030 0
-31 -1029 1030 0
-1030 -32 107 0
107 -1030 1031 0
-32 -1030 1031 0
-1031 -35 99 0
99 -1031 1032 0
-35 -1031 1032 0
-1032 -36 100 0
100 -1032 1033 0
-36 -1032 1033 0
-1033 160 -157 0
-157 -1033 1034 0
160 -1033 1034 0
-1034 159 -158 0
-158 -1034 1035 0
159 -1034 1035 0
-1035 -45 4 0
4 -1035 1036 0
-45 -1035 1036 0
-1036 -46 3 0
3 -1036 1037 0
-46 -1036 1037 0
-1037 -102 37 0
37 -1037 1038 0
-102 -1037 1038 0
-1038 101 -38 0
-38 -1038 1039 0
101 -1038 1039 0
-1039 144 -171 0
-171 -1039 1040 0
144 -1039 1040 0
-1040 143 -172 0
-172 -1040 1041 0
143 -1040 1041 0
-1041 -131 170 0
170 -1041 1042 0
-131 -1041 1042 0
-1042 -132 169 0
169 -1042 1043 0
-132 -1042 1043 0
-1043 -67 89 0
89 -1043 1044 0
-67 -1043 1044 0
-1044 -95 44 0
44 -1044 1045 0
-95 -1044 1045 0
-1045 178 -31 0
-31 -1045 1046 0
178 -1045 1046 0
-1046 177 -32 0
-32 -1046 1047 0
177 -1046 1047 0
-1047 -96 43 0
43 -1047 1048 0
-96 -1047 1048 0
-1048 68 -90 0
-90 -1048 1049 0
68 -1048 1049 0
-1049 -123 67 0
67 -1049 1050 0
-123 -1049 1050 0
-1050 133 -167 0
-167 -1050 1051 0
133 -1050 1051 0
-1051 -134 168 0
168 -1051 1052 0
-134 -1051 1052 0
-1052 -124 68 0
68 -1052 1053 0
-124 -1052 1053 0
-1053 38 -12 0
-12 -1053 1054 0
38 -1053 1054 0
-1054 -23 97 0
97 -1054 1055 0
-23 -1054 1055 0
-1055 37 -11 0
-11 -1055 1056 0
37 -1055 1056 0
-1056 -43 6 0
6 -1056 1057 0
-43 -1056 1057 0
-1057 69 -85 0
-85 -1057 1058 0
69 -1057 1058 0
-1058 -70 86 0
86 -1058 1059 0
-70 -1058 1059 0
-1059 -24 98 0
98 -1059 1060 0
-24 -1059 1060 0
-1060 -25 95 0
95 -1060 1061 0
-25 -1060 1061 0
-1061 -81 129 0
129 -1061 1062 0
-81 -1061 1062 0
-1062 -44 5 0
5 -1062 1063 0
-44 -1062 1063 0
-1063 -26 96 0
96 -1063 1064 0
-26 -1063 1064 0
-1064 -82 130 0
130 -1064 1065 0
-82 -1064 1065 0
-1065 -87 139 0
139 -1065 1066 0
-87 -1065 1066 0
-1066 -88 140 0
140 -1066 1067 0
-88 -1066 1067 0
-1067 136 -166 0
-166 -1067 1068 0
136 -1067 1068 0
-1068 -135 165 0
165 -1068 1069 0
-135 -1068 1069 0
-1069 52 -13 0
-13 -1069 1070 0
52 -1069 1070 0
-1070 -127 173 0
173 -1070 1071 0
-127 -1070 1071 0
-1071 -128 174 0
174 -1071 1072 0
-128 -1071 1072 0
-1072 42 -8 0
-8 -1072 1073 0
42 -1072 1073 0
-1073 41 -7 0
-7 -1073 1074 0
41 -1073 1074 0
-1074 51 -14 0
-14 -1074 1075 0
51 -1074 1075 0
-1075 -39 15 0
15 -1075 1076 0
-39 -1075 1076 0
-1076 -40 16 0
16 -1076 1077 0
-40 -1076 1077 0
-1077 -139 179 0
179 -1077 1078 0
-139 -1077 1078 0
-1078 -140 180 0
180 -1078 1079 0
-140 -1078 1079 0
-1079 142 -175 0
-175 -1079 1080 0
142 -1079 1080 0
-1080 137 -163 0
-163 -1080 1081 0
137 -1080 1081 0
-1081 -138 164 0
164 -1081 1082 0
-138 -1081 1082 0
-1082 -141 176 0
1083 0
147 -154 0
-154 -1083 1084 0
147 -1083 1084 0
-1084 -148 153 0
153 -1084 1085 0
-148 -1084 1085 0
-1085 -1 128 0
128 -1085 1086 0
-1 -1085 1086 0
-1086 2 -127 0
-127 -1086 1087 0
2 -1086 1087 0
-1087 14 -141 0
-141 -1087 1088 0
14 -1087 1088 0
-1088 13 -142 0
-142 -1088 1089 0
13 -1088 1089 0
-1089 -121 177 0
177 -1089 1090 0
-121 -1089 1090 0
-1090 -122 178 0
178 -1090 1091 0
-122 -1090 1091 0
-1091 180 -13 0
-13 -1091 1092 0
180 -1091 1092 0
-1092 126 -175 0
-175 -1092 1093 0
126 -1092 1093 0
-1093 179 -14 0
-14 -1093 1094 0
179 -1093 1094 0
-1094 -17 140 0
140 -1094 1095 0
-17 -1094 1095 0
-1095 -18 139 0
139 -1095 1096 0
-18 -1095 1096 0
-1096 125 -176 0
-176 -1096 1097 0
125 -1096 1097 0
-1097 162 -158 0
-158 -1097 1098 0
162 -1097 1098 0
-1098 161 -157 0
-157 -1098 1099 0
161 -1098 1099 0
-1099 176 -15 0
-15 -1099 1100 0
176 -1099 1100 0
-1100 175 -16 0
-16 -1100 1101 0
175 -1100 1101 0
-1101 -153 161 0
161 -1101 1102 0
-153 -1101 1102 0
-1102 -154 162 0
162 -1102 1103 0
-154 -1102 1103 0
-1103 -5 132 0
132 -1103 1104 0
-5 -1103 1104 0
-1104 -6 131 0
131 -1104 1105 0
-6 -1104 1105 0
-1105 -115 169 0
169 -1105 1106 0
-115 -1105 1106 0
-1106 -116 170 0
170 -1106 1107 0
-116 -1106 1107 0
-1107 -113 167 0
167 -1107 1108 0
-113 -1107 1108 0
-1108 -114 168 0
168 -1108 1109 0
-114 -1108 1109 0
-1109 4 -136 0
-136 -1109 1110 0
4 -1109 1110 0
-1110 3 -135 0
-135 -1110 1111 0
3 -1110 1111 0
-1111 -163 1 0
1 -1111 1112 0
-163 -1111 1112 0
-1112 166 -10 0
-10 -1112 1113 0
166 -1112 1113 0
-1113 165 -9 0
-9 -1113 1114 0
165 -1113 1114 0
-1114 164 -2 0
-2 -1114 1115 0
164 -1114 1115 0
-1115 -167 6 0
6 -1115 1116 0
-167 -1115 1116 0
-1116 -109 163 0
163 -1116 1117 0
-109 -1116 1117 0
-1117 -110 164 0
164 -1117 1118 0
-110 -1117 1118 0
-1118 -168 5 0
5 -1118 1119 0
-168 -1118 1119 0
-1119 158 -159 0
-159 -1119 1120 0
158 -1119 1120 0
-1120 157 -160 0
-160 -1120 1121 0
157 -1120 1121 0
-1121 72 -32 0
-32 -1121 1122 0
72 -1121 1122 0
-1122 112 -171 0
-171 -1122 1123 0
112 -1122 1123 0
-1123 111 -172 0
-172 -1123 1124 0
111 -1123 1124 0
-1124 71 -31 0
-31 -1124 1125 0
71 -1124 1125 0
-1125 7 -133 0
-133 -1125 1126 0
7 -1125 1126 0
-1126 8 -134 0
-134 -1126 1127 0
8 -1126 1127 0
-1127 -169 7 0
7 -1127 1128 0
-169 -1127 1128 0
-1128 -83 102 0
102 -1128 1129 0
-83 -1128 1129 0
-1129 -170 8 0
8 -1129 1130 0
-170 -1129 1130 0
-1130 84 -101 0
-101 -1130 1131 0
84 -1130 1131 0
-1131 -57 28 0
28 -1131 1132 0
-57 -1131 1132 0
-1132 -58 27 0
27 -1132 1133 0
-58 -1132 1133 0
-1133 117 -180 0
-180 -1133 1134 0
117 -1133 1134 0
-1134 -73 92 0
92 -1134 1135 0
-73 -1134 1135 0
-1135 74 -91 0
-91 -1135 1136 0
74 -1135 1136 0
-1136 56 -19 0
-19 -1136 1137 0
56 -1136 1137 0
-1137 55 -20 0
-20 -1137 1138 0
55 -1137 1138 0
-1138 172 -17 0
-17 -1138 1139 0
172 -1138 1139 0
-1139 171 -18 0
-18 -1139 1140 0
171 -1139 1140 0
-1140 118 -179 0
-179 -1140 1141 0
118 -1140 1141 0
-1141 -91 55 0
55 -1141 1142 0
-91 -1141 1142 0
-1142 92 -56 0
-56 -1142 1143 0
92 -1142 1143 0
-1143 12 -137 0
-137 -1143 1144 0
12 -1143 1144 0
-1144 -11 138 0
138 -1144 1145 0
-11 -1144 1145 0
-1145 80 -98 0
-98 -1145 1146 0
80 -1145 1146 0
-1146 79 -97 0
-97 -1146 1147 0
79 -1146 1147 0
-1147 173 -12 0
-12 -1147 1148 0
173 -1147 1148 0
-1148 -174 11 0
11 -1148 1149 0
-174 -1148 1149 0
-1149 -75 99 0
99 -1149 1150 0
-75 -1149 1150 0
-1150 -76 100 0
100 -1150 1151 0
-76 -1150 1151 0
-1151 -77 96 0
96 -1151 1152 0
-77 -1151 1152 0
-1152 -78 95 0
95 -1152 1153 0
-78 -1152 1153 0
-1153 66 -30 0
-30 -1153 1154 0
66 -1153 1154 0
-1154 -63 35 0
35 -1154 1155 0
-63 -1154 1155 0
-1155 -64 36 0
36 -1155 1156 0
-64 -1155 1156 0
-1156 -65 29 0
29 -1156 1157 0
-65 -1156 1157 0
-1157 22 -118 0
-118 -1157 1158 0
22 -1157 1158 0
-1158 21 -117 0
-117 -1158 1159 0
21 -1158 1159 0
-1159 -85 105 0
105 -1159 1160 0
-85 -1159 1160 0
-1160 -86 106 0
106 -1160 1161 0
-86 -1160 1161 0
-1161 -119 174 0
174 -1161 1162 0
-119 -1161 1162 0
-1162 -120 173 0
173 -1162 1163 0
-120 -1162 1163 0
-1163 62 -26 0
-26 -1163 1164 0
62 -1163 1164 0
-1164 61 -25 0
-25 -1164 1165 0
61 -1164 1165 0
-1165 60 -24 0
-24 -1165 1166 0
60 -1165 1166 0
-1166 59 -23 0
-23 -1166 1167 0
59 -1166 1167 0
-1167 34 -112 0
-112 -1167 1168 0
34 -1167 1168 0
-1168 33 -111 0
-111 -1168 1169 0
33 -1168 1169 0
-1169 28 -125 0
-125 -1169 1170 0
28 -1169 1170 0
-1170 27 -126 0
-126 -1170 1171 0
27 -1170 1171 0
-1171 20 -110 0
-110 -1171 1172 0
20 -1171 1172 0
-1172 19 -109 0
-109 -1172 1173 0
19 -1172 1173 0
-1173 -99 71 0
71 -1173 1174 0
-99 -1173 1174 0
-1174 -100 72 0
72 -1174 1175 0
-100 -1174 1175 0
-1175 108 -67 0
-67 -1175 1176 0
108 -1175 1176 0
-1176 107 -68 0
-68 -1176 1177 0
107 -1176 1177 0
-1177 -103 69 0
69 -1177 1178 0
-103 -1177 1178 0
-1178 -104 70 0
70 -1178 1179 0
-104 -1178 1179 0
-1179 -105 57 0
57 -1179 1180 0
-105 -1179 1180 0
-1180 -106 58 0
58 -1180 1181 0
-106 -1180 1181 0
-1181 -98 61 0
61 -1181 1182 0
-98 -1181 1182 0
-1182 -9 144 0
144 -1182 1183 0
-9 -1182 1183 0
-1183 -10 143 0
143 -1183 1184 0
-10 -1183 1184 0
-1184 97 -62 0
-62 -1184 1185 0
97 -1184 1185 0
-1185 -89 103 0
103 -1185 1186 0
-89 -1185 1186 0
-1186 -90 104 0
104 -1186 1187 0
-90 -1186 1187 0
-1187 94 -63 0
-63 -1187 1188 0
94 -1187 1188 0
-1188 93 -64 0
-64 -1188 1189 0
93 -1188 1189 0
-1189 -15 130 0
130 -1189 1190 0
-15 -1189 1190 0
-1190 -16 129 0
129 -1190 1191 0
-16 -1190 1191 0
-1191 -29 120 0
120 -1191 1192 0
-29 -1191 1192 0
-1192 -30 119 0
119 -1192 1193 0
-30 -1192 1193 0
-1193 -31 123 0
123 -1193 1194 0
-31 -1193 1194 0
-1194 -32 124 0
124 -1194 1195 0
-32 -1194 1195 0
-1195 -35 122 0
122 -1195 1196 0
-35 -1195 1196 0
-1196 -36 121 0
121 -1196 1197 0
-36 -1196 1197 0
-1197 160 -148 0
-148 -1197 1198 0
160 -1197 1198 0
-1198 159 -147 0
-147 -1198 1199 0
159 -1198 1199 0
-1199 -45 90 0
90 -1199 1200 0
-45 -1199 1200 0
-1200 -46 89 0
89 -1200 1201 0
-46 -1200 1201 0
-1201 -102 65 0
65 -1201 1202 0
-102 -1201 1202 0
-1202 101 -66 0
-66 -1202 1203 0
101 -1202 1203 0
-1203 144 -49 0
-49 -1203 1204 0
144 -1203 1204 0
-1204 143 -50 0
-50 -1204 1205 0
143 -1204 1205 0
-1205 -131 42 0
42 -1205 1206 0
-131 -1205 1206 0
-1206 -132 41 0
41 -1206 1207 0
-132 -1206 1207 0
-1207 -67 34 0
34 -1207 1208 0
-67 -1207 1208 0
-1208 -95 59 0
59 -1208 1209 0
-95 -1208 1209 0
-1209 178 -3 0
-3 -1209 1210 0
178 -1209 1210 0
-1210 177 -4 0
-4 -1210 1211 0
177 -1210 1211 0
-1211 -96 60 0
60 -1211 1212 0
-96 -1211 1212 0
-1212 68 -33 0
-33 -1212 1213 0
68 -1212 1213 0
-1213 -123 165 0
165 -1213 1214 0
-123 -1213 1214 0
-1214 133 -43 0
-43 -1214 1215 0
133 -1214 1215 0
-1215 -134 44 0
44 -1215 1216 0
-134 -1215 1216 0
-1216 -124 166 0
166 -1216 1217 0
-124 -1216 1217 0
-1217 38 -74 0
-74 -1217 1218 0
38 -1217 1218 0
-1218 -23 113 0
113 -1218 1219 0
-23 -1218 1219 0
-1219 37 -73 0
-73 -1219 1220 0
37 -1219 1220 0
-1220 -43 80 0
80 -1220 1221 0
-43 -1220 1221 0
-1221 69 -22 0
-22 -1221 1222 0
69 -1221 1222 0
-1222 -70 21 0
21 -1222 1223 0
-70 -1222 1223 0
-1223 -24 114 0
114 -1223 1224 0
-24 -1223 1224 0
-1224 -25 115 0
115 -1224 1225 0
-25 -1224 1225 0
-1225 -81 108 0
108 -1225 1226 0
-81 -1225 1226 0
-1226 -44 79 0
79 -1226 1227 0
-44 -1226 1227 0
-1227 -26 116 0
116 -1227 1228 0
-26 -1227 1228 0
-1228 -82 107 0
107 -1228 1229 0
-82 -1228 1229 0
-1229 -87 94 0
94 -1229 1230 0
-87 -1229 1230 0
-1230 -88 93 0
93 -1230 1231 0
-88 -1230 1231 0
-1231 136 -53 0
-53 -1231 1232 0
136 -1231 1232 0
-1232 -135 54 0
54 -1232 1233 0
-135 -1232 1233 0
-1233 52 -76 0
-76 -1233 1234 0
52 -1233 1234 0
-1234 -127 38 0
38 -1234 1235 0
-127 -1234 1235 0
-1235 -128 37 0
37 -1235 1236 0
-128 -1235 1236 0
-1236 42 -78 0
-78 -1236 1237 0
42 -1236 1237 0
-1237 41 -77 0
-77 -1237 1238 0
41 -1237 1238 0
-1238 51 -75 0
-75 -1238 1239 0
51 -1238 1239 0
-1239 -39 82 0
82 -1239 1240 0
-39 -1239 1240 0
-1240 -40 81 0
81 -1240 1241 0
-40 -1240 1241 0
-1241 -139 51 0
51 -1241 1242 0
-139 -1241 1242 0
-1242 -140 52 0
52 -1242 1243 0
-140 -1242 1243 0
-1243 142 -40 0
1244 0
-45 136 0
136 -1244 1245 0
-45 -1244 1245 0
-1245 -46 135 0
135 -1245 1246 0
-46 -1245 1246 0
-1246 144 -54 0
-54 -1246 1247 0
144 -1246 1247 0
-1247 143 -53 0
-53 -1247 1248 0
143 -1247 1248 0
-1248 -131 41 0
41 -1248 1249 0
-131 -1248 1249 0
-1249 -132 42 0
42 -1249 1250 0
-132 -1249 1250 0
-1250 133 -44 0
-44 -1250 1251 0
133 -1250 1251 0
-1251 -134 43 0
43 -1251 1252 0
-134 -1251 1252 0
-1252 38 -127 0
-127 -1252 1253 0
38 -1252 1253 0
-1253 37 -128 0
-128 -1253 1254 0
37 -1253 1254 0
-1254 -43 134 0
134 -1254 1255 0
-43 -1254 1255 0
-1255 -44 133 0
133 -1255 1256 0
-44 -1255 1256 0
-1256 136 -46 0
-46 -1256 1257 0
136 -1256 1257 0
-1257 -135 45 0
45 -1257 1258 0
-135 -1257 1258 0
-1258 52 -142 0
-142 -1258 1259 0
52 -1258 1259 0
-1259 -127 38 0
38 -1259 1260 0
-127 -1259 1260 0
-1260 -128 37 0
37 -1260 1261 0
-128 -1260 1261 0
-1261 42 -131 0
-131 -1261 1262 0
42 -1261 1262 0
-1262 41 -132 0
-132 -1262 1263 0
41 -1262 1263 0
-1263 51 -141 0
-141 -1263 1264 0
51 -1263 1264 0
-1264 -39 130 0
130 -1264 1265 0
-39 -1264 1265 0
-1265 -40 129 0
129 -1265 1266 0
-40 -1265 1266 0
-1266 -139 50 0
1267 0
147 -159 0
-159 -1267 1268 0
147 -1267 1268 0
-1268 -148 160 0
160 -1268 1269 0
-148 -1268 1269 0
-1269 152 -150 0
-150 -1269 1270 0
152 -1269 1270 0
-1270 -146 156 0
156 -1270 1271 0
-146 -1270 1271 0
-1271 -151 149 0
149 -1271 1272 0
-151 -1271 1272 0
-1272 145 -155 0
-155 -1272 1273 0
145 -1272 1273 0
-1273 -149 151 0
151 -1273 1274 0
-149 -1273 1274 0
-1274 -1 119 0
119 -1274 1275 0
-1 -1274 1275 0
-1275 -150 152 0
152 -1275 1276 0
-150 -1275 1276 0
-1276 2 -120 0
-120 -1276 1277 0
2 -1276 1277 0
-1277 14 -125 0
-125 -1277 1278 0
14 -1277 1278 0
-1278 13 -126 0
-126 -1278 1279 0
13 -1278 1279 0
-1279 -121 72 0
72 -1279 1280 0
-121 -1279 1280 0
-1280 -122 71 0
71 -1280 1281 0
-122 -1280 1281 0
-1281 180 -27 0
-27 -1281 1282 0
180 -1281 1282 0
-1282 126 -64 0
-64 -1282 1283 0
126 -1282 1283 0
-1283 179 -28 0
-28 -1283 1284 0
179 -1283 1284 0
-1284 -17 117 0
117 -1284 1285 0
-17 -1284 1285 0
-1285 -18 118 0
118 -1285 1286 0
-18 -1285 1286 0
-1286 125 -63 0
-63 -1286 1287 0
125 -1286 1287 0
-1287 162 -154 0
-154 -1287 1288 0
162 -1287 1288 0
-1288 161 -153 0
-153 -1288 1289 0
161 -1288 1289 0
-1289 156 -145 0
-145 -1289 1290 0
156 -1289 1290 0
-1290 176 -35 0
-35 -1290 1291 0
176 -1290 1291 0
-1291 175 -36 0
-36 -1291 1292 0
175 -1291 1292 0
-1292 155 -146 0
-146 -1292 1293 0
155 -1292 1293 0
-1293 -153 148 0
148 -1293 1294 0
-153 -1293 1294 0
-1294 -154 147 0
147 -1294 1295 0
-154 -1294 1295 0
-1295 -5 115 0
115 -1295 1296 0
-5 -1295 1296 0
-1296 -6 116 0
116 -1296 1297 0
-6 -1296 1297 0
-1297 -115 59 0
59 -1297 1298 0
-115 -1297 1298 0
-1298 -116 60 0
60 -1298 1299 0
-116 -1298 1299 0
-1299 -113 62 0
62 -1299 1300 0
-113 -1299 1300 0
-1300 -114 61 0
61 -1300 1301 0
-114 -1300 1301 0
-1301 4 -124 0
-124 -1301 1302 0
4 -1301 1302 0
-1302 3 -123 0
-123 -1302 1303 0
3 -1302 1303 0
-1303 -163 30 0
30 -1303 1304 0
-163 -1303 1304 0
-1304 166 -33 0
-33 -1304 1305 0
166 -1304 1305 0
-1305 165 -34 0
-34 -1305 1306 0
165 -1305 1306 0
-1306 164 -29 0
-29 -1306 1307 0
164 -1306 1307 0
-1307 -167 26 0
26 -1307 1308 0
-167 -1307 1308 0
-1308 -109 66 0
66 -1308 1309 0
-109 -1308 1309 0
-1309 -110 65 0
65 -1309 1310 0
-110 -1309 1310 0
-1310 -168 25 0
25 -1310 1311 0
-168 -1310 1311 0
-1311 158 -162 0
-162 -1311 1312 0
158 -1311 1312 0
-1312 157 -161 0
-161 -1312 1313 0
157 -1312 1313 0
-1313 72 -81 0
-81 -1313 1314 0
72 -1313 1314 0
-1314 112 -69 0
-69 -1314 1315 0
112 -1314 1315 0
-1315 111 -70 0
-70 -1315 1316 0
111 -1315 1316 0
-1316 71 -82 0
-82 -1316 1317 0
71 -1316 1317 0
-1317 7 -113 0
-113 -1317 1318 0
7 -1317 1318 0
-1318 8 -114 0
-114 -1318 1319 0
8 -1318 1319 0
-1319 -169 23 0
23 -1319 1320 0
-169 -1319 1320 0
-1320 -83 128 0
128 -1320 1321 0
-83 -1320 1321 0
-1321 -170 24 0
24 -1321 1322 0
-170 -1321 1322 0
-1322 84 -127 0
-127 -1322 1323 0
84 -1322 1323 0
-1323 -57 87 0
87 -1323 1324 0
-57 -1323 1324 0
-1324 -58 88 0
88 -1324 1325 0
-58 -1324 1325 0
-1325 117 -58 0
-58 -1325 1326 0
117 -1325 1326 0
-1326 -73 138 0
138 -1326 1327 0
-73 -1326 1327 0
-1327 74 -137 0
-137 -1327 1328 0
74 -1327 1328 0
-1328 56 -84 0
-84 -1328 1329 0
56 -1328 1329 0
-1329 55 -83 0
-83 -1329 1330 0
55 -1329 1330 0
-1330 172 -21 0
-21 -1330 1331 0
172 -1330 1331 0
-1331 171 -22 0
-22 -1331 1332 0
171 -1331 1332 0
-1332 118 -57 0
-57 -1332 1333 0
118 -1332 1333 0
-1333 -91 48 0
48 -1333 1334 0
-91 -1333 1334 0
-1334 92 -47 0
-47 -1334 1335 0
92 -1334 1335 0
-1335 12 -109 0
-109 -1335 1336 0
12 -1335 1336 0
-1336 -11 110 0
110 -1336 1337 0
-11 -1336 1337 0
-1337 80 -131 0
-131 -1337 1338 0
80 -1337 1338 0
-1338 79 -132 0
-132 -1338 1339 0
79 -1338 1339 0
-1339 173 -19 0
-19 -1339 1340 0
173 -1339 1340 0
-1340 -174 20 0
20 -1340 1341 0
-174 -1340 1341 0
-1341 -75 141 0
141 -1341 1342 0
-75 -1341 1342 0
-1342 -76 142 0
142 -1342 1343 0
-76 -1342 1343 0
-1343 -77 133 0
133 -1343 1344 0
-77 -1343 1344 0
-1344 -78 134 0
134 -1344 1345 0
-78 -1344 1345 0
-1345 66 -74 0
-74 -1345 1346 0
66 -1345 1346 0
-1346 -63 75 0
75 -1346 1347 0
-63 -1346 1347 0
-1347 -64 76 0
76 -1347 1348 0
-64 -1347 1348 0
-1348 -65 73 0
73 -1348 1349 0
-65 -1348 1349 0
-1349 22 -105 0
-105 -1349 1350 0
22 -1349 1350 0
-1350 21 -106 0
-106 -1350 1351 0
21 -1350 1351 0
-1351 -85 144 0
144 -1351 1352 0
-85 -1351 1352 0
-1352 -86 143 0
143 -1352 1353 0
-86 -1352 1353 0
-1353 -119 55 0
55 -1353 1354 0
-119 -1353 1354 0
-1354 -120 56 0
56 -1354 1355 0
-120 -1354 1355 0
-1355 62 -77 0
-77 -1355 1356 0
62 -1355 1356 0
-1356 61 -78 0
-78 -1356 1357 0
61 -1356 1357 0
-1357 60 -80 0
-80 -1357 1358 0
60 -1357 1358 0
-1358 59 -79 0
-79 -1358 1359 0
59 -1358 1359 0
-1359 34 -103 0
-103 -1359 1360 0
34 -1359 1360 0
-1360 33 -104 0
-104 -1360 1361 0
33 -1360 1361 0
-1361 28 -94 0
-94 -1361 1362 0
28 -1361 1362 0
-1362 27 -93 0
-93 -1362 1363 0
27 -1362 1363 0
-1363 20 -102 0
-102 -1363 1364 0
20 -1363 1364 0
-1364 19 -101 0
-101 -1364 1365 0
19 -1364 1365 0
-1365 -99 39 0
39 -1365 1366 0
-99 -1365 1366 0
-1366 -100 40 0
40 -1366 1367 0
-100 -1366 1367 0
-1367 108 -46 0
-46 -1367 1368 0
108 -1367 1368 0
-1368 107 -45 0
-45 -1368 1369 0
107 -1368 1369 0
-1369 -103 54 0
54 -1369 1370 0
-103 -1369 1370 0
-1370 -104 53 0
53 -1370 1371 0
-104 -1370 1371 0
-1371 -105 49 0
49 -1371 1372 0
-105 -1371 1372 0
-1372 -106 50 0
50 -1372 1373 0
-106 -1372 1373 0
-1373 -98 42 0
42 -1373 1374 0
-98 -1373 1374 0
-1374 -9 112 0
112 -1374 1375 0
-9 -1374 1375 0
-1375 -10 111 0
111 -1375 1376 0
-10 -1375 1376 0
-1376 97 -41 0
-41 -1376 1377 0
97 -1376 1377 0
-1377 -89 135 0
135 -1377 1378 0
-89 -1377 1378 0
-1378 -90 136 0
136 -1378 1379 0
-90 -1378 1379 0
-1379 94 -51 0
-51 -1379 1380 0
94 -1379 1380 0
-1380 93 -52 0
-52 -1380 1381 0
93 -1380 1381 0
-1381 -15 122 0
122 -1381 1382 0
-15 -1381 1382 0
-1382 -16 121 0
121 -1382 1383 0
-16 -1382 1383 0
-1383 -29 92 0
92 -1383 1384 0
-29 -1383 1384 0
-1384 -30 91 0
91 -1384 1385 0
-30 -1384 1385 0
-1385 -31 108 0
108 -1385 1386 0
-31 -1385 1386 0
-1386 -32 107 0
107 -1386 1387 0
-32 -1386 1387 0
-1387 -35 99 0
99 -1387 1388 0
-35 -1387 1388 0
-1388 -36 100 0
100 -1388 1389 0
-36 -1388 1389 0
-1389 160 -157 0
-157 -1389 1390 0
160 -1389 1390 0
-1390 159 -158 0
-158 -1390 1391 0
159 -1390 1391 0
-1391 -45 4 0
4 -1391 1392 0
-45 -1391 1392 0
-1392 -46 3 0
3 -1392 1393 0
-46 -1392 1393 0
-1393 -102 37 0
37 -1393 1394 0
-102 -1393 1394 0
-1394 101 -38 0
-38 -1394 1395 0
101 -1394 1395 0
-1395 144 -171 0
-171 -1395 1396 0
144 -1395 1396 0
-1396 143 -172 0
-172 -1396 1397 0
143 -1396 1397 0
-1397 -131 170 0
170 -1397 1398 0
-131 -1397 1398 0
-1398 -132 169 0
169 -1398 1399 0
-132 -1398 1399 0
-1399 -67 89 0
89 -1399 1400 0
-67 -1399 1400 0
-1400 -95 44 0
44 -1400 1401 0
-95 -1400 1401 0
-1401 178 -31 0
-31 -1401 1402 0
178 -1401 1402 0
-1402 177 -32 0
-32 -1402 1403 0
177 -1402 1403 0
-1403 -96 43 0
43 -1403 1404 0
-96 -1403 1404 0
-1404 68 -90 0
-90 -1404 1405 0
68 -1404 1405 0
-1405 -123 67 0
67 -1405 1406 0
-123 -1405 1406 0
-1406 133 -167 0
-167 -1406 1407 0
133 -1406 1407 0
-1407 -134 168 0
168 -1407 1408 0
-134 -1407 1408 0
-1408 -124 68 0
68 -1408 1409 0
-124 -1408 1409 0
-1409 38 -12 0
-12 -1409 1410 0
38 -1409 1410 0
-1410 -23 97 0
97 -1410 1411 0
-23 -1410 1411 0
-1411 37 -11 0
-11 -1411 1412 0
37 -1411 1412 0
-1412 -43 6 0
6 -1412 1413 0
-43 -1412 1413 0
-1413 69 -85 0
-85 -1413 1414 0
69 -1413 1414 0
-1414 -70 86 0
86 -1414 1415 0
-70 -1414 1415 0
-1415 -24 98 0
98 -1415 1416 0
-24 -1415 1416 0
-1416 -25 95 0
95 -1416 1417 0
-25 -1416 1417 0
-1417 -81 129 0
129 -1417 1418 0
-81 -1417 1418 0
-1418 -44 5 0
5 -1418 1419 0
-44 -1418 1419 0
-1419 -26 96 0
96 -1419 1420 0
-26 -1419 1420 0
-1420 -82 130 0
130 -1420 1421 0
-82 -1420 1421 0
-1421 -87 139 0
139 -1421 1422 0
-87 -1421 1422 0
-1422 -88 140 0
140 -1422 1423 0
-88 -1422 1423 0
-1423 136 -166 0
-166 -1423 1424 0
136 -1423 1424 0
-1424 -135 165 0
165 -1424 1425 0
-135 -1424 1425 0
-1425 52 -13 0
-13 -1425 1426 0
52 -1425 1426 0
-1426 -127 173 0
173 -1426 1427 0
-127 -1426 1427 0
-1427 -128 174 0
174 -1427 1428 0
-128 -1427 1428 0
-1428 42 -8 0
-8 -1428 1429 0
42 -1428 1429 0
-1429 41 -7 0
-7 -1429 1430 0
41 -1429 1430 0
-1430 51 -14 0
-14 -1430 1431 0
51 -1430 1431 0
-1431 -39 16 0
16 -1431 1432 0
-39 -1431 1432 0
-1432 -40 15 0
15 -1432 1433 0
-40 -1432 1433 0
-1433 -139 179 0
179 -1433 1434 0
-139 -1433 1434 0
-1434 -140 180 0
180 -1434 1435 0
-140 -1434 1435 0
-1435 142 -175 0
-175 -1435 1436 0
142 -1435 1436 0
-1436 137 -163 0
-163 -1436 1437 0
137 -1436 1437 0
-1437 -138 164 0
164 -1437 1438 0
-138 -1437 1438 0
-1438 -141 176 0
1439 0
147 -169 0
-169 -1439 1440 0
147 -1439 1440 0
-1440 -148 170 0
170 -1440 1441 0
-148 -1440 1441 0
-1441 152 -163 0
-163 -1441 1442 0
152 -1441 1442 0
-1442 -146 177 0
177 -1442 1443 0
-146 -1442 1443 0
-1443 -151 164 0
164 -1443 1444 0
-151 -1443 1444 0
-1444 145 -178 0
-178 -1444 1445 0
145 -1444 1445 0
-1445 -149 180 0
180 -1445 1446 0
-149 -1445 1446 0
-1446 -1 34 0
34 -1446 1447 0
-1 -1446 1447 0
-1447 -150 179 0
179 -1447 1448 0
-150 -1447 1448 0
-1448 2 -33 0
-33 -1448 1449 0
2 -1448 1449 0
-1449 14 -24 0
-24 -1449 1450 0
14 -1449 1450 0
-1450 13 -23 0
-23 -1450 1451 0
13 -1450 1451 0
-1451 -121 114 0
114 -1451 1452 0
-121 -1451 1452 0
-1452 -122 113 0
113 -1452 1453 0
-122 -1452 1453 0
-1453 180 -39 0
-39 -1453 1454 0
180 -1453 1454 0
-1454 126 -111 0
-111 -1454 1455 0
126 -1454 1455 0
-1455 179 -40 0
-40 -1455 1456 0
179 -1455 1456 0
-1456 -17 22 0
22 -1456 1457 0
-17 -1456 1457 0
-1457 -18 21 0
21 -1457 1458 0
-18 -1457 1458 0
-1458 125 -112 0
-112 -1458 1459 0
125 -1458 1459 0
-1459 162 -165 0
-165 -1459 1460 0
162 -1459 1460 0
-1460 161 -166 0
-166 -1460 1461 0
161 -1460 1461 0
-1461 156 -176 0
-176 -1461 1462 0
156 -1461 1462 0
-1462 176 -42 0
-42 -1462 1463 0
176 -1462 1463 0
-1463 175 -41 0
-41 -1463 1464 0
175 -1463 1464 0
-1464 155 -175 0
-175 -1464 1465 0
155 -1464 1465 0
-1465 -153 173 0
173 -1465 1466 0
-153 -1465 1466 0
-1466 -154 174 0
174 -1466 1467 0
-154 -1466 1467 0
-1467 -5 35 0
35 -1467 1468 0
-5 -1467 1468 0
-1468 -6 36 0
36 -1468 1469 0
-6 -1468 1469 0
-1469 -115 110 0
110 -1469 1470 0
-115 -1469 1470 0
-1470 -116 109 0
109 -1470 1471 0
-116 -1470 1471 0
-1471 -113 125 0
125 -1471 1472 0
-113 -1471 1472 0
-1472 -114 126 0
126 -1472 1473 0
-114 -1472 1473 0
-1473 4 -25 0
-25 -1473 1474 0
4 -1473 1474 0
-1474 3 -26 0
-26 -1474 1475 0
3 -1474 1475 0
-1475 -163 51 0
51 -1475 1476 0
-163 -1475 1476 0
-1476 166 -43 0
-43 -1476 1477 0
166 -1476 1477 0
-1477 165 -44 0
-44 -1477 1478 0
165 -1477 1478 0
-1478 164 -52 0
-52 -1478 1479 0
164 -1478 1479 0
-1479 -167 53 0
53 -1479 1480 0
-167 -1479 1480 0
-1480 -109 124 0
124 -1480 1481 0
-109 -1480 1481 0
-1481 -110 123 0
123 -1481 1482 0
-110 -1481 1482 0
-1482 -168 54 0
54 -1482 1483 0
-168 -1482 1483 0
-1483 158 -168 0
-168 -1483 1484 0
158 -1483 1484 0
-1484 157 -167 0
-167 -1484 1485 0
157 -1484 1485 0
-1485 72 -75 0
-75 -1485 1486 0
72 -1485 1486 0
-1486 112 -116 0
-116 -1486 1487 0
112 -1486 1487 0
-1487 111 -115 0
-115 -1487 1488 0
111 -1487 1488 0
-1488 71 -76 0
-76 -1488 1489 0
71 -1488 1489 0
-1489 7 -20 0
-20 -1489 1490 0
7 -1489 1490 0
-1490 8 -19 0
-19 -1490 1491 0
8 -1490 1491 0
-1491 -169 37 0
37 -1491 1492 0
-169 -1491 1492 0
-1492 -83 157 0
157 -1492 1493 0
-83 -1492 1493 0
-1493 -170 38 0
38 -1493 1494 0
-170 -1493 1494 0
-1494 84 -158 0
-158 -1494 1495 0
84 -1494 1495 0
-1495 -57 79 0
79 -1495 1496 0
-57 -1495 1496 0
-1496 -58 80 0
80 -1496 1497 0
-58 -1496 1497 0
-1497 117 -119 0
-119 -1497 1498 0
117 -1497 1498 0
-1498 -73 159 0
159 -1498 1499 0
-73 -1498 1499 0
-1499 74 -160 0
-160 -1499 1500 0
74 -1499 1500 0
-1500 56 -87 0
-87 -1500 1501 0
56 -1500 1501 0
-1501 55 -88 0
-88 -1501 1502 0
55 -1501 1502 0
-1502 172 -47 0
-47 -1502 1503 0
172 -1502 1503 0
-1503 171 -48 0
-48 -1503 1504 0
171 -1503 1504 0
-1504 118 -120 0
-120 -1504 1505 0
118 -1504 1505 0
-1505 -91 15 0
15 -1505 1506 0
-91 -1505 1506 0
-1506 92 -16 0
-16 -1506 1507 0
92 -1506 1507 0
-1507 12 -31 0
-31 -1507 1508 0
12 -1507 1508 0
-1508 -11 32 0
32 -1508 1509 0
-11 -1508 1509 0
-1509 80 -145 0
-145 -1509 1510 0
80 -1509 1510 0
-1510 79 -146 0
-146 -1510 1511 0
79 -1510 1511 0
-1511 173 -49 0
-49 -1511 1512 0
173 -1511 1512 0
-1512 -174 50 0
50 -1512 1513 0
-174 -1512 1513 0
-1513 -75 152 0
152 -1513 1514 0
-75 -1513 1514 0
-1514 -76 151 0
151 -1514 1515 0
-76 -1514 1515 0
-1515 -77 162 0
162 -1515 1516 0
-77 -1515 1516 0
-1516 -78 161 0
161 -1516 1517 0
-78 -1516 1517 0
-1517 66 -86 0
-86 -1517 1518 0
66 -1517 1518 0
-1518 -63 84 0
84 -1518 1519 0
-63 -1518 1519 0
-1519 -64 83 0
83 -1519 1520 0
-64 -1519 1520 0
-1520 -65 85 0
85 -1520 1521 0
-65 -1520 1521 0
-1521 22 -133 0
-133 -1521 1522 0
22 -1521 1522 0
-1522 21 -134 0
-134 -1522 1523 0
21 -1522 1523 0
-1523 -85 149 0
149 -1523 1524 0
-85 -1523 1524 0
-1524 -86 150 0
150 -1524 1525 0
-86 -1524 1525 0
-1525 -119 121 0
121 -1525 1526 0
-119 -1525 1526 0
-1526 -120 122 0
122 -1526 1527 0
-120 -1526 1527 0
-1527 62 -73 0
-73 -1527 1528 0
62 -1527 1528 0
-1528 61 -74 0
-74 -1528 1529 0
61 -1528 1529 0
-1529 60 -89 0
-89 -1529 1530 0
60 -1529 1530 0
-1530 59 -90 0
-90 -1530 1531 0
59 -1530 1531 0
-1531 34 -135 0
-135 -1531 1532 0
34 -1531 1532 0
-1532 33 -136 0
-136 -1532 1533 0
33 -1532 1533 0
-1533 28 -138 0
-138 -1533 1534 0
28 -1533 1534 0
-1534 27 -137 0
-137 -1534 1535 0
27 -1534 1535 0
-1535 20 -142 0
-142 -1535 1536 0
20 -1535 1536 0
-1536 19 -141 0
-141 -1536 1537 0
19 -1536 1537 0
-1537 -99 12 0
12 -1537 1538 0
-99 -1537 1538 0
-1538 -100 11 0
11 -1538 1539 0
-100 -1538 1539 0
-1539 108 -3 0
-3 -1539 1540 0
108 -1539 1540 0
-1540 107 -4 0
-4 -1540 1541 0
107 -1540 1541 0
-1541 -103 6 0
6 -1541 1542 0
-103 -1541 1542 0
-1542 -104 5 0
5 -1542 1543 0
-104 -1542 1543 0
-1543 -105 10 0
10 -1543 1544 0
-105 -1543 1544 0
-1544 -106 9 0
9 -1544 1545 0
-106 -1544 1545 0
-1545 -98 2 0
2 -1545 1546 0
-98 -1545 1546 0
-1546 -9 29 0
29 -1546 1547 0
-9 -1546 1547 0
-1547 -10 30 0
30 -1547 1548 0
-10 -1547 1548 0
-1548 97 -1 0
-1 -1548 1549 0
97 -1548 1549 0
-1549 -89 147 0
147 -1549 1550 0
-89 -1549 1550 0
-1550 -90 148 0
148 -1550 1551 0
-90 -1550 1551 0
-1551 94 -8 0
-8 -1551 1552 0
94 -1551 1552 0
-1552 93 -7 0
-7 -1552 1553 0
93 -1552 1553 0
-1553 -15 27 0
27 -1553 1554 0
-15 -1553 1554 0
-1554 -16 28 0
28 -1554 1555 0
-16 -1554 1555 0
-1555 -29 140 0
140 -1555 1556 0
-29 -1555 1556 0
-1556 -30 139 0
139 -1556 1557 0
-30 -1556 1557 0
-1557 -31 131 0
131 -1557 1558 0
-31 -1557 1558 0
-1558 -32 132 0
132 -1558 1559 0
-32 -1558 1559 0
-1559 -35 129 0
129 -1559 1560 0
-35 -1559 1560 0
-1560 -36 130 0
130 -1560 1561 0
-36 -1560 1561 0
-1561 160 -171 0
-171 -1561 1562 0
160 -1561 1562 0
-1562 159 -172 0
-172 -1562 1563 0
159 -1562 1563 0
-1563 -45 101 0
101 -1563 1564 0
-45 -1563 1564 0
-1564 -46 102 0
102 -1564 1565 0
-46 -1564 1565 0
-1565 -102 14 0
14 -1565 1566 0
-102 -1565 1566 0
-1566 101 -13 0
-13 -1566 1567 0
101 -1566 1567 0
-1567 144 -58 0
-58 -1567 1568 0
144 -1567 1568 0
-1568 143 -57 0
-57 -1568 1569 0
143 -1568 1569 0
-1569 -131 72 0
72 -1569 1570 0
-131 -1569 1570 0
-1570 -132 71 0
71 -1570 1571 0
-132 -1570 1571 0
-1571 -67 77 0
77 -1571 1572 0
-67 -1571 1572 0
-1572 -95 18 0
18 -1572 1573 0
-95 -1572 1573 0
-1573 178 -45 0
-45 -1573 1574 0
178 -1573 1574 0
-1574 177 -46 0
-46 -1574 1575 0
177 -1574 1575 0
-1575 -96 17 0
17 -1575 1576 0
-96 -1575 1576 0
-1576 68 -78 0
-78 -1576 1577 0
68 -1576 1577 0
-1577 -123 117 0
117 -1577 1578 0
-123 -1577 1578 0
-1578 133 -56 0
-56 -1578 1579 0
133 -1578 1579 0
-1579 -134 55 0
55 -1579 1580 0
-134 -1579 1580 0
-1580 -124 118 0
118 -1580 1581 0
-124 -1580 1581 0
-1581 38 -105 0
-105 -1581 1582 0
38 -1581 1582 0
-1582 -23 143 0
143 -1582 1583 0
-23 -1582 1583 0
-1583 37 -106 0
-106 -1583 1584 0
37 -1583 1584 0
-1584 -43 92 0
92 -1584 1585 0
-43 -1584 1585 0
-1585 69 -82 0
-82 -1585 1586 0
69 -1585 1586 0
-1586 -70 81 0
81 -1586 1587 0
-70 -1586 1587 0
-1587 -24 144 0
144 -1587 1588 0
-24 -1587 1588 0
-1588 -25 127 0
127 -1588 1589 0
-25 -1588 1589 0
-1589 -81 156 0
156 -1589 1590 0
-81 -1589 1590 0
-1590 -44 91 0
91 -1590 1591 0
-44 -1590 1591 0
-1591 -26 128 0
128 -1591 1592 0
-26 -1591 1592 0
-1592 -82 155 0
155 -1592 1593 0
-82 -1592 1593 0
-1593 -87 154 0
154 -1593 1594 0
-87 -1593 1594 0
-1594 -88 153 0
153 -1594 1595 0
-88 -1594 1595 0
-1595 136 -66 0
-66 -1595 1596 0
136 -1595 1596 0
-1596 -135 65 0
65 -1596 1597 0
-135 -1596 1597 0
-1597 52 -99 0
-99 -1597 1598 0
52 -1597 1598 0
-1598 -127 70 0
70 -1598 1599 0
-127 -1598 1599 0
-1599 -128 69 0
69 -1599 1600 0
-128 -1599 1600 0
-1600 42 -108 0
-108 -1600 1601 0
42 -1600 1601 0
-1601 41 -107 0
-107 -1601 1602 0
41 -1601 1602 0
-1602 51 -100 0
-100 -1602 1603 0
51 -1602 1603 0
-1603 -39 98 0
98 -1603 1604 0
-39 -1603 1604 0
-1604 -40 97 0
97 -1604 1605 0
-40 -1604 1605 0
-1605 -139 60 0
1606 0
147 -169 0
-169 -1606 1607 0
147 -1606 1607 0
-1607 -148 170 0
170 -1607 1608 0
-148 -1607 1608 0
-1608 152 -163 0
-163 -1608 1609 0
152 -1608 1609 0
-1609 -146 177 0
177 -1609 1610 0
-146 -1609 1610 0
-1610 -151 164 0
164 -1610 1611 0
-151 -1610 1611 0
-1611 145 -178 0
-178 -1611 1612 0
145 -1611 1612 0
-1612 -149 180 0
180 -1612 1613 0
-149 -1612 1613 0
-1613 -1 34 0
34 -1613 1614 0
-1 -1613 1614 0
-1614 -150 179 0
179 -1614 1615 0
-150 -1614 1615 0
-1615 2 -33 0
-33 -1615 1616 0
2 -1615 1616 0
-1616 14 -24 0
-24 -1616 1617 0
14 -1616 1617 0
-1617 13 -23 0
-23 -1617 1618 0
13 -1617 1618 0
-1618 -121 114 0
114 -1618 1619 0
-121 -1618 1619 0
-1619 -122 113 0
113 -1619 1620 0
-122 -1619 1620 0
-1620 180 -39 0
-39 -1620 1621 0
180 -1620 1621 0
-1621 126 -111 0
-111 -1621 1622 0
126 -1621 1622 0
-1622 179 -40 0
-40 -1622 1623 0
179 -1622 1623 0
-1623 -17 22 0
22 -1623 1624 0
-17 -1623 1624 0
-1624 -18 21 0
21 -1624 1625 0
-18 -1624 1625 0
-1625 125 -112 0
-112 -1625 1626 0
125 -1625 1626 0
-1626 162 -165 0
-165 -1626 1627 0
162 -1626 1627 0
-1627 161 -166 0
-166 -1627 1628 0
161 -1627 1628 0
-1628 156 -176 0
-176 -1628 1629 0
156 -1628 1629 0
-1629 176 -42 0
-42 -1629 1630 0
176 -1629 1630 0
-1630 175 -41 0
-41 -1630 1631 0
175 -1630 1631 0
-1631 155 -175 0
-175 -1631 1632 0
155 -1631 1632 0
-1632 -153 173 0
173 -1632 1633 0
-153 -1632 1633 0
-1633 -154 174 0
174 -1633 1634 0
-154 -1633 1634 0
-1634 -5 35 0
35 -1634 1635 0
-5 -1634 1635 0
-1635 -6 36 0
36 -1635 1636 0
-6 -1635 1636 0
-1636 -115 110 0
110 -1636 1637 0
-115 -1636 1637 0
-1637 -116 109 0
109 -1637 1638 0
-116 -1637 1638 0
-1638 -113 125 0
125 -1638 1639 0
-113 -1638 1639 0
-1639 -114 126 0
126 -1639 1640 0
-114 -1639 1640 0
-1640 4 -25 0
-25 -1640 1641 0
4 -1640 1641 0
-1641 3 -26 0
-26 -1641 1642 0
3 -1641 1642 0
-1642 -163 51 0
51 -1642 1643 0
-163 -1642 1643 0
-1643 166 -43 0
-43 -1643 1644 0
166 -1643 1644 0
-1644 165 -44 0
-44 -1644 1645 0
165 -1644 1645 0
-1645 164 -52 0
-52 -1645 1646 0
164 -1645 1646 0
-1646 -167 53 0
53 -1646 1647 0
-167 -1646 1647 0
-1647 -109 124 0
124 -1647 1648 0
-109 -1647 1648 0
-1648 -110 123 0
123 -1648 1649 0
-110 -1648 1649 0
-1649 -168 54 0
54 -1649 1650 0
-168 -1649 1650 0
-1650 158 -168 0
-168 -1650 1651 0
158 -1650 1651 0
-1651 157 -167 0
-167 -1651 1652 0
157 -1651 1652 0
-1652 72 -75 0
-75 -1652 1653 0
72 -1652 1653 0
-1653 112 -116 0
-116 -1653 1654 0
112 -1653 1654 0
-1654 111 -115 0
-115 -1654 1655 0
111 -1654 1655 0
-1655 71 -76 0
-76 -1655 1656 0
71 -1655 1656 0
-1656 7 -20 0
-20 -1656 1657 0
7 -1656 1657 0
-1657 8 -19 0
-19 -1657 1658 0
8 -1657 1658 0
-1658 -169 37 0
37 -1658 1659 0
-169 -1658 1659 0
-1659 -83 157 0
157 -1659 1660 0
-83 -1659 1660 0
-1660 -170 38 0
38 -1660 1661 0
-170 -1660 1661 0
-1661 84 -158 0
-158 -1661 1662 0
84 -1661 1662 0
-1662 -57 79 0
79 -1662 1663 0
-57 -1662 1663 0
-1663 -58 80 0
80 -1663 1664 0
-58 -1663 1664 0
-1664 117 -119 0
-119 -1664 1665 0
117 -1664 1665 0
-1665 -73 159 0
159 -1665 1666 0
-73 -1665 1666 0
-1666 74 -160 0
-160 -1666 1667 0
74 -1666 1667 0
-1667 56 -87 0
-87 -1667 1668 0
56 -1667 1668 0
-1668 55 -88 0
-88 -1668 1669 0
55 -1668 1669 0
-1669 172 -47 0
-47 -1669 1670 0
172 -1669 1670 0
-1670 171 -48 0
-48 -1670 1671 0
171 -1670 1671 0
-1671 118 -120 0
-120 -1671 1672 0
118 -1671 1672 0
-1672 -91 15 0
15 -1672 1673 0
-91 -1672 1673 0
-1673 92 -16 0
-16 -1673 1674 0
92 -1673 1674 0
-1674 12 -31 0
-31 -1674 1675 0
12 -1674 1675 0
-1675 -11 32 0
32 -1675 1676 0
-11 -1675 1676 0
-1676 80 -145 0
-145 -1676 1677 0
80 -1676 1677 0
-1677 79 -146 0
-146 -1677 1678 0
79 -1677 1678 0
-1678 173 -49 0
-49 -1678 1679 0
173 -1678 1679 0
-1679 -174 50 0
50 -1679 1680 0
-174 -1679 1680 0
-1680 -75 152 0
152 -1680 1681 0
-75 -1680 1681 0
-1681 -76 151 0
151 -1681 1682 0
-76 -1681 1682 0
-1682 -77 162 0
162 -1682 1683 0
-77 -1682 1683 0
-1683 -78 161 0
161 -1683 1684 0
-78 -1683 1684 0
-1684 66 -86 0
-86 -1684 1685 0
66 -1684 1685 0
-1685 -63 84 0
84 -1685 1686 0
-63 -1685 1686 0
-1686 -64 83 0
83 -1686 1687 0
-64 -1686 1687 0
-1687 -65 85 0
85 -1687 1688 0
-65 -1687 1688 0
-1688 22 -133 0
-133 -1688 1689 0
22 -1688 1689 0
-1689 21 -134 0
-134 -1689 1690 0
21 -1689 1690 0
-1690 -85 149 0
149 -1690 1691 0
-85 -1690 1691 0
-1691 -86 150 0
150 -1691 1692 0
-86 -1691 1692 0
-1692 -119 121 0
121 -1692 1693 0
-119 -1692 1693 0
-1693 -120 122 0
122 -1693 1694 0
-120 -1693 1694 0
-1694 62 -73 0
-73 -1694 1695 0
62 -1694 1695 0
-1695 61 -74 0
-74 -1695 1696 0
61 -1695 1696 0
-1696 60 -89 0
-89 -1696 1697 0
60 -1696 1697 0
-1697 59 -90 0
-90 -1697 1698 0
59 -1697 1698 0
-1698 34 -135 0
-135 -1698 1699 0
34 -1698 1699 0
-1699 33 -136 0
-136 -1699 1700 0
33 -1699 1700 0
-1700 28 -138 0
-138 -1700 1701 0
28 -1700 1701 0
-1701 27 -137 0
-137 -1701 1702 0
27 -1701 1702 0
-1702 20 -142 0
-142 -1702 1703 0
20 -1702 1703 0
-1703 19 -141 0
-141 -1703 1704 0
19 -1703 1704 0
-1704 -99 12 0
12 -1704 1705 0
-99 -1704 1705 0
-1705 -100 11 0
11 -1705 1706 0
-100 -1705 1706 0
-1706 108 -3 0
-3 -1706 1707 0
108 -1706 1707 0
-1707 107 -4 0
-4 -1707 1708 0
107 -1707 1708 0
-1708 -103 6 0
6 -1708 1709 0
-103 -1708 1709 0
-1709 -104 5 0
5 -1709 1710 0
-104 -1709 1710 0
-1710 -105 10 0
10 -1710 1711 0
-105 -1710 1711 0
-1711 -106 9 0
9 -1711 1712 0
-106 -1711 1712 0
-1712 -98 2 0
2 -1712 1713 0
-98 -1712 1713 0
-1713 -9 29 0
29 -1713 1714 0
-9 -1713 1714 0
-1714 -10 30 0
30 -1714 1715 0
-10 -1714 1715 0
-1715 97 -1 0
-1 -1715 1716 0
97 -1715 1716 0
-1716 -89 147 0
147 -1716 1717 0
-89 -1716 1717 0
-1717 -90 148 0
148 -1717 1718 0
-90 -1717 1718 0
-1718 94 -8 0
-8 -1718 1719 0
94 -1718 1719 0
-1719 93 -7 0
-7 -1719 1720 0
93 -1719 1720 0
-1720 -15 27 0
27 -1720 1721 0
-15 -1720 1721 0
-1721 -16 28 0
28 -1721 1722 0
-16 -1721 1722 0
-1722 -29 140 0
140 -1722 1723 0
-29 -1722 1723 0
-1723 -30 139 0
139 -1723 1724 0
-30 -1723 1724 0
-1724 -31 131 0
131 -1724 1725 0
-31 -1724 1725 0
-1725 -32 132 0
132 -1725 1726 0
-32 -1725 1726 0
-1726 -35 129 0
129 -1726 1727 0
-35 -1726 1727 0
-1727 -36 130 0
130 -1727 1728 0
-36 -1727 1728 0
-1728 160 -171 0
-171 -1728 1729 0
160 -1728 1729 0
-1729 159 -172 0
-172 -1729 1730 0
159 -1729 1730 0
-1730 -45 101 0
101 -1730 1731 0
-45 -1730 1731 0
-1731 -46 102 0
102 -1731 1732 0
-46 -1731 1732 0
-1732 -102 14 0
14 -1732 1733 0
-102 -1732 1733 0
-1733 101 -13 0
-13 -1733 1734 0
101 -1733 1734 0
-1734 144 -58 0
-58 -1734 1735 0
144 -1734 1735 0
-1735 143 -57 0
-57 -1735 1736 0
143 -1735 1736 0
-1736 -131 72 0
72 -1736 1737 0
-131 -1736 1737 0
-1737 -132 71 0
71 -1737 1738 0
-132 -1737 1738 0
-1738 -67 77 0
77 -1738 1739 0
-67 -1738 1739 0
-1739 -95 18 0
18 -1739 1740 0
-95 -1739 1740 0
-1740 178 -45 0
-45 -1740 1741 0
178 -1740 1741 0
-1741 177 -46 0
-46 -1741 1742 0
177 -1741 1742 0
-1742 -96 17 0
17 -1742 1743 0
-96 -1742 1743 0
-1743 68 -78 0
-78 -1743 1744 0
68 -1743 1744 0
-1744 -123 117 0
117 -1744 1745 0
-123 -1744 1745 0
-1745 133 -56 0
-56 -1745 1746 0
133 -1745 1746 0
-1746 -134 55 0
55 -1746 1747 0
-134 -1746 1747 0
-1747 -124 118 0
118 -1747 1748 0
-124 -1747 1748 0
-1748 38 -105 0
-105 -1748 1749 0
38 -1748 1749 0
-1749 -23 143 0
143 -1749 1750 0
-23 -1749 1750 0
-1750 37 -106 0
-106 -1750 1751 0
37 -1750 1751 0
-1751 -43 92 0
92 -1751 1752 0
-43 -1751 1752 0
-1752 69 -82 0
-82 -1752 1753 0
69 -1752 1753 0
-1753 -70 81 0
81 -1753 1754 0
-70 -1753 1754 0
-1754 -24 144 0
144 -1754 1755 0
-24 -1754 1755 0
-1755 -25 127 0
127 -1755 1756 0
-25 -1755 1756 0
-1756 -81 156 0
156 -1756 1757 0
-81 -1756 1757 0
-1757 -44 91 0
91 -1757 1758 0
-44 -1757 1758 0
-1758 -26 128 0
128 -1758 1759 0
-26 -1758 1759 0
-1759 -82 155 0
155 -1759 1760 0
-82 -1759 1760 0
-1760 -87 154 0
154 -1760 1761 0
-87 -1760 1761 0
-1761 -88 153 0
153 -1761 1762 0
-88 -1761 1762 0
-1762 136 -66 0
-66 -1762 1763 0
136 -1762 1763 0
-1763 -135 65 0
65 -1763 1764 0
-135 -1763 1764 0
-1764 52 -99 0
-99 -1764 1765 0
52 -1764 1765 0
-1765 -127 70 0
70 -1765 1766 0
-127 -1765 1766 0
-1766 -128 69 0
69 -1766 1767 0
-128 -1766 1767 0
-1767 42 -108 0
-108 -1767 1768 0
42 -1767 1768 0
-1768 41 -107 0
-107 -1768 1769 0
41 -1768 1769 0
-1769 51 -100 0
-100 -1769 1770 0
51 -1769 1770 0
-1770 -39 98 0
98 -1770 1771 0
-39 -1770 1771 0
-1771 -40 97 0
97 -1771 1772 0
-40 -1771 1772 0
-1772 -139 60 0
1773 0
-153 160 0
160 -1773 1774 0
-153 -1773 1774 0
-1774 -154 159 0
159 -1774 1775 0
-154 -1774 1775 0
-1775 117 -124 0
-124 -1775 1776 0
117 -1775 1776 0
-1776 172 -177 0
-177 -1776 1777 0
172 -1776 1777 0
-1777 171 -178 0
-178 -1777 1778 0
171 -1777 1778 0
-1778 118 -123 0
-123 -1778 1779 0
118 -1778 1779 0
-1779 -63 70 0
70 -1779 1780 0
-63 -1779 1780 0
-1780 -64 69 0
69 -1780 1781 0
-64 -1780 1781 0
-1781 34 -28 0
-28 -1781 1782 0
34 -1781 1782 0
-1782 33 -27 0
-27 -1782 1783 0
33 -1782 1783 0
-1783 28 -34 0
-34 -1783 1784 0
28 -1783 1784 0
-1784 27 -33 0
-33 -1784 1785 0
27 -1784 1785 0
-1785 20 -19 0
-19 -1785 1786 0
20 -1785 1786 0
-1786 19 -20 0
-20 -1786 1787 0
19 -1786 1787 0
-1787 -99 106 0
106 -1787 1788 0
-99 -1787 1788 0
-1788 -100 105 0
105 -1788 1789 0
-100 -1788 1789 0
-1789 -105 100 0
100 -1789 1790 0
-105 -1789 1790 0
-1790 -106 99 0
99 -1790 1791 0
-106 -1790 1791 0
-1791 -9 16 0
16 -1791 1792 0
-9 -1791 1792 0
-1792 -10 15 0
15 -1792 1793 0
-10 -1792 1793 0
-1793 -15 10 0
10 -1793 1794 0
-15 -1793 1794 0
-1794 -16 9 0
9 -1794 1795 0
-16 -1794 1795 0
-1795 -29 30 0
30 -1795 1796 0
-29 -1795 1796 0
-1796 -30 29 0
29 -1796 1797 0
-30 -1796 1797 0
-1797 -31 32 0
32 -1797 1798 0
-31 -1797 1798 0
-1798 -32 31 0
31 -1798 1799 0
-32 -1798 1799 0
-1799 160 -153 0
-153 -1799 1800 0
160 -1799 1800 0
-1800 159 -154 0
-154 -1800 1801 0
159 -1800 1801 0
-1801 -45 52 0
52 -1801 1802 0
-45 -1801 1802 0
-1802 -46 51 0
51 -1802 1803 0
-46 -1802 1803 0
-1803 178 -171 0
-171 -1803 1804 0
178 -1803 1804 0
-1804 177 -172 0
1805 0
-45 135 0
135 -1805 1806 0
-45 -1805 1806 0
-1806 -46 136 0
136 -1806 1807 0
-46 -1806 1807 0
-1807 144 -53 0
-53 -1807 1808 0
144 -1807 1808 0
-1808 143 -54 0
-54 -1808 1809 0
143 -1808 1809 0
-1809 -131 42 0
42 -1809 1810 0
-131 -1809 1810 0
-1810 -132 41 0
41 -1810 1811 0
-132 -1810 1811 0
-1811 133 -44 0
-44 -1811 1812 0
133 -1811 1812 0
-1812 -134 43 0
43 -1812 1813 0
-134 -1812 1813 0
-1813 38 -127 0
-127 -1813 1814 0
38 -1813 1814 0
-1814 37 -128 0
-128 -1814 1815 0
37 -1814 1815 0
-1815 -43 134 0
134 -1815 1816 0
-43 -1815 1816 0
-1816 -44 133 0
133 -1816 1817 0
-44 -1816 1817 0
-1817 136 -45 0
-45 -1817 1818 0
136 -1817 1818 0
-1818 -135 46 0
46 -1818 1819 0
-135 -1818 1819 0
-1819 52 -141 0
-141 -1819 1820 0
52 -1819 1820 0
-1820 -127 38 0
38 -1820 1821 0
-127 -1820 1821 0
-1821 -128 37 0
37 -1821 1822 0
-128 -1821 1822 0
-1822 42 -132 0
-132 -1822 1823 0
42 -1822 1823 0
-1823 41 -131 0
-131 -1823 1824 0
41 -1823 1824 0
-1824 51 -142 0
-142 -1824 1825 0
51 -1824 1825 0
-1825 -39 129 0
129 -1825 1826 0
-39 -1825 1826 0
-1826 -40 130 0
130 -1826 1827 0
-40 -1826 1827 0
-1827 -139 50 0
50 -1827 1828 0
-139 -1827 1828 0
-1828 -140 49 0
1829 0
147 -154 0
-154 -1829 1830 0
147 -1829 1830 0
-1830 -148 153 0
153 -1830 1831 0
-148 -1830 1831 0
-1831 -1 128 0
128 -1831 1832 0
-1 -1831 1832 0
-1832 2 -127 0
-127 -1832 1833 0
2 -1832 1833 0
-1833 14 -141 0
-141 -1833 1834 0
14 -1833 1834 0
-1834 13 -142 0
-142 -1834 1835 0
13 -1834 1835 0
-1835 -121 177 0
177 -1835 1836 0
-121 -1835 1836 0
-1836 -122 178 0
178 -1836 1837 0
-122 -1836 1837 0
-1837 180 -13 0
-13 -1837 1838 0
180 -1837 1838 0
-1838 126 -175 0
-175 -1838 1839 0
126 -1838 1839 0
-1839 179 -14 0
-14 -1839 1840 0
179 -1839 1840 0
-1840 -17 140 0
140 -1840 1841 0
-17 -1840 1841 0
-1841 -18 139 0
139 -1841 1842 0
-18 -1841 1842 0
-1842 125 -176 0
-176 -1842 1843 0
125 -1842 1843 0
-1843 162 -158 0
-158 -1843 1844 0
162 -1843 1844 0
-1844 161 -157 0
-157 -1844 1845 0
161 -1844 1845 0
-1845 176 -15 0
-15 -1845 1846 0
176 -1845 1846 0
-1846 175 -16 0
-16 -1846 1847 0
175 -1846 1847 0
-1847 -153 161 0
161 -1847 1848 0
-153 -1847 1848 0
-1848 -154 162 0
162 -1848 1849 0
-154 -1848 1849 0
-1849 -5 132 0
132 -1849 1850 0
-5 -1849 1850 0
-1850 -6 131 0
131 -1850 1851 0
-6 -1850 1851 0
-1851 -115 169 0
169 -1851 1852 0
-115 -1851 1852 0
-1852 -116 170 0
170 -1852 1853 0
-116 -1852 1853 0
-1853 -113 167 0
167 -1853 1854 0
-113 -1853 1854 0
-1854 -114 168 0
168 -1854 1855 0
-114 -1854 1855 0
-1855 4 -136 0
-136 -1855 1856 0
4 -1855 1856 0
-1856 3 -135 0
-135 -1856 1857 0
3 -1856 1857 0
-1857 -163 1 0
1 -1857 1858 0
-163 -1857 1858 0
-1858 166 -10 0
-10 -1858 1859 0
166 -1858 1859 0
-1859 165 -9 0
-9 -1859 1860 0
165 -1859 1860 0
-1860 164 -2 0
-2 -1860 1861 0
164 -1860 1861 0
-1861 -167 6 0
6 -1861 1862 0
-167 -1861 1862 0
-1862 -109 163 0
163 -1862 1863 0
-109 -1862 1863 0
-1863 -110 164 0
164 -1863 1864 0
-110 -1863 1864 0
-1864 -168 5 0
5 -1864 1865 0
-168 -1864 1865 0
-1865 158 -159 0
-159 -1865 1866 0
158 -1865 1866 0
-1866 157 -160 0
-160 -1866 1867 0
157 -1866 1867 0
-1867 72 -32 0
-32 -1867 1868 0
72 -1867 1868 0
-1868 112 -171 0
-171 -1868 1869 0
112 -1868 1869 0
-1869 111 -172 0
-172 -1869 1870 0
111 -1869 1870 0
-1870 71 -31 0
-31 -1870 1871 0
71 -1870 1871 0
-1871 7 -133 0
-133 -1871 1872 0
7 -1871 1872 0
-1872 8 -134 0
-134 -1872 1873 0
8 -1872 1873 0
-1873 -169 7 0
7 -1873 1874 0
-169 -1873 1874 0
-1874 -83 102 0
102 -1874 1875 0
-83 -1874 1875 0
-1875 -170 8 0
8 -1875 1876 0
-170 -1875 1876 0
-1876 84 -101 0
-101 -1876 1877 0
84 -1876 1877 0
-1877 -57 28 0
28 -1877 1878 0
-57 -1877 1878 0
-1878 -58 27 0
27 -1878 1879 0
-58 -1878 1879 0
-1879 117 -180 0
-180 -1879 1880 0
117 -1879 1880 0
-1880 -73 92 0
92 -1880 1881 0
-73 -1880 1881 0
-1881 74 -91 0
-91 -1881 1882 0
74 -1881 1882 0
-1882 56 -19 0
-19 -1882 1883 0
56 -1882 1883 0
-1883 55 -20 0
-20 -1883 1884 0
55 -1883 1884 0
-1884 172 -17 0
-17 -1884 1885 0
172 -1884 1885 0
-1885 171 -18 0
-18 -1885 1886 0
171 -1885 1886 0
-1886 118 -179 0
-179 -1886 1887 0
118 -1886 1887 0
-1887 -91 55 0
55 -1887 1888 0
-91 -1887 1888 0
-1888 92 -56 0
-56 -1888 1889 0
92 -1888 1889 0
-1889 12 -137 0
-137 -1889 1890 0
12 -1889 1890 0
-1890 -11 138 0
138 -1890 1891 0
-11 -1890 1891 0
-1891 80 -98 0
-98 -1891 1892 0
80 -1891 1892 0
-1892 79 -97 0
-97 -1892 1893 0
79 -1892 1893 0
-1893 173 -12 0
-12 -1893 1894 0
173 -1893 1894 0
-1894 -174 11 0
11 -1894 1895 0
-174 -1894 1895 0
-1895 -75 100 0
100 -1895 1896 0
-75 -1895 1896 0
-1896 -76 99 0
99 -1896 1897 0
-76 -1896 1897 0
-1897 -77 96 0
96 -1897 1898 0
-77 -1897 1898 0
-1898 -78 95 0
95 -1898 1899 0
-78 -1898 1899 0
-1899 66 -30 0
-30 -1899 1900 0
66 -1899 1900 0
-1900 -63 35 0
35 -1900 1901 0
-63 -1900 1901 0
-1901 -64 36 0
36 -1901 1902 0
-64 -1901 1902 0
-1902 -65 29 0
29 -1902 1903 0
-65 -1902 1903 0
-1903 22 -118 0
-118 -1903 1904 0
22 -1903 1904 0
-1904 21 -117 0
-117 -1904 1905 0
21 -1904 1905 0
-1905 -85 105 0
105 -1905 1906 0
-85 -1905 1906 0
-1906 -86 106 0
106 -1906 1907 0
-86 -1906 1907 0
-1907 -119 174 0
174 -1907 1908 0
-119 -1907 1908 0
-1908 -120 173 0
173 -1908 1909 0
-120 -1908 1909 0
-1909 62 -26 0
-26 -1909 1910 0
62 -1909 1910 0
-1910 61 -25 0
-25 -1910 1911 0
61 -1910 1911 0
-1911 60 -24 0
-24 -1911 1912 0
60 -1911 1912 0
-1912 59 -23 0
-23 -1912 1913 0
59 -1912 1913 0
-1913 34 -112 0
-112 -1913 1914 0
34 -1913 1914 0
-1914 33 -111 0
-111 -1914 1915 0
33 -1914 1915 0
-1915 28 -125 0
-125 -1915 1916 0
28 -1915 1916 0
-1916 27 -126 0
-126 -1916 1917 0
27 -1916 1917 0
-1917 20 -110 0
-110 -1917 1918 0
20 -1917 1918 0
-1918 19 -109 0
-109 -1918 1919 0
19 -1918 1919 0
-1919 -99 71 0
71 -1919 1920 0
-99 -1919 1920 0
-1920 -100 72 0
72 -1920 1921 0
-100 -1920 1921 0
-1921 108 -67 0
-67 -1921 1922 0
108 -1921 1922 0
-1922 107 -68 0
-68 -1922 1923 0
107 -1922 1923 0
-1923 -103 69 0
69 -1923 1924 0
-103 -1923 1924 0
-1924 -104 70 0
70 -1924 1925 0
-104 -1924 1925 0
-1925 -105 57 0
57 -1925 1926 0
-105 -1925 1926 0
-1926 -106 58 0
58 -1926 1927 0
-106 -1926 1927 0
-1927 -98 61 0
61 -1927 1928 0
-98 -1927 1928 0
-1928 -9 144 0
144 -1928 1929 0
-9 -1928 1929 0
-1929 -10 143 0
143 -1929 1930 0
-10 -1929 1930 0
-1930 97 -62 0
-62 -1930 1931 0
97 -1930 1931 0
-1931 -89 103 0
103 -1931 1932 0
-89 -1931 1932 0
-1932 -90 104 0
104 -1932 1933 0
-90 -1932 1933 0
-1933 94 -63 0
-63 -1933 1934 0
94 -1933 1934 0
-1934 93 -64 0
-64 -1934 1935 0
93 -1934 1935 0
-1935 -15 130 0
130 -1935 1936 0
-15 -1935 1936 0
-1936 -16 129 0
129 -1936 1937 0
-16 -1936 1937 0
-1937 -29 120 0
120 -1937 1938 0
-29 -1937 1938 0
-1938 -30 119 0
119 -1938 1939 0
-30 -1938 1939 0
-1939 -31 123 0
123 -1939 1940 0
-31 -1939 1940 0
-1940 -32 124 0
124 -1940 1941 0
-32 -1940 1941 0
-1941 -35 122 0
122 -1941 1942 0
-35 -1941 1942 0
-1942 -36 121 0
121 -1942 1943 0
-36 -1942 1943 0
-1943 160 -148 0
-148 -1943 1944 0
160 -1943 1944 0
-1944 159 -147 0
-147 -1944 1945 0
159 -1944 1945 0
-1945 -45 90 0
90 -1945 1946 0
-45 -1945 1946 0
-1946 -46 89 0
89 -1946 1947 0
-46 -1946 1947 0
-1947 -102 65 0
65 -1947 1948 0
-102 -1947 1948 0
-1948 101 -66 0
-66 -1948 1949 0
101 -1948 1949 0
-1949 144 -49 0
-49 -1949 1950 0
144 -1949 1950 0
-1950 143 -50 0
-50 -1950 1951 0
143 -1950 1951 0
-1951 -131 42 0
42 -1951 1952 0
-131 -1951 1952 0
-1952 -132 41 0
41 -1952 1953 0
-132 -1952 1953 0
-1953 -67 34 0
34 -1953 1954 0
-67 -1953 1954 0
-1954 -95 59 0
59 -1954 1955 0
-95 -1954 1955 0
-1955 178 -3 0
-3 -1955 1956 0
178 -1955 1956 0
-1956 177 -4 0
-4 -1956 1957 0
177 -1956 1957 0
-1957 -96 60 0
60 -1957 1958 0
-96 -1957 1958 0
-1958 68 -33 0
-33 -1958 1959 0
68 -1958 1959 0
-1959 -123 165 0
165 -1959 1960 0
-123 -1959 1960 0
-1960 133 -43 0
-43 -1960 1961 0
133 -1960 1961 0
-1961 -134 44 0
44 -1961 1962 0
-134 -1961 1962 0
-1962 -124 166 0
166 -1962 1963 0
-124 -1962 1963 0
-1963 38 -74 0
-74 -1963 1964 0
38 -1963 1964 0
-1964 -23 113 0
113 -1964 1965 0
-23 -1964 1965 0
-1965 37 -73 0
-73 -1965 1966 0
37 -1965 1966 0
-1966 -43 80 0
80 -1966 1967 0
-43 -1966 1967 0
-1967 69 -22 0
-22 -1967 1968 0
69 -1967 1968 0
-1968 -70 21 0
21 -1968 1969 0
-70 -1968 1969 0
-1969 -24 114 0
114 -1969 1970 0
-24 -1969 1970 0
-1970 -25 115 0
115 -1970 1971 0
-25 -1970 1971 0
-1971 -81 108 0
108 -1971 1972 0
-81 -1971 1972 0
-1972 -44 79 0
79 -1972 1973 0
-44 -1972 1973 0
-1973 -26 116 0
116 -1973 1974 0
-26 -1973 1974 0
-1974 -82 107 0
107 -1974 1975 0
-82 -1974 1975 0
-1975 -87 94 0
94 -1975 1976 0
-87 -1975 1976 0
-1976 -88 93 0
93 -1976 1977 0
-88 -1976 1977 0
-1977 136 -53 0
-53 -1977 1978 0
136 -1977 1978 0
-1978 -135 54 0
54 -1978 1979 0
-135 -1978 1979 0
-1979 52 -76 0
-76 -1979 1980 0
52 -1979 1980 0
-1980 -127 38 0
38 -1980 1981 0
-127 -1980 1981 0
-1981 -128 37 0
37 -1981 1982 0
-128 -1981 1982 0
-1982 42 -78 0
-78 -1982 1983 0
42 -1982 1983 0
-1983 41 -77 0
-77 -1983 1984 0
41 -1983 1984 0
-1984 51 -75 0
-75 -1984 1985 0
51 -1984 1985 0
-1985 -39 82 0
82 -1985 1986 0
-39 -1985 1986 0
-1986 -40 81 0
81 -1986 1987 0
-40 -1986 1987 0
-1987 -139 51 0
51 -1987 1988 0
-139 -1987 1988 0
-1988 -140 52 0
1989 0
147 -162 0
-162 -1989 1990 0
147 -1989 1990 0
-1990 -148 161 0
161 -1990 1991 0
-148 -1990 1991 0
-1991 152 -150 0
-150 -1991 1992 0
152 -1991 1992 0
-1992 -146 155 0
155 -1992 1993 0
-146 -1992 1993 0
-1993 -151 149 0
149 -1993 1994 0
-151 -1993 1994 0
-1994 145 -156 0
-156 -1994 1995 0
145 -1994 1995 0
-1995 -149 151 0
151 -1995 1996 0
-149 -1995 1996 0
-1996 -1 83 0
83 -1996 1997 0
-1 -1996 1997 0
-1997 -150 152 0
152 -1997 1998 0
-150 -1997 1998 0
-1998 2 -84 0
-84 -1998 1999 0
2 -1998 1999 0
-1999 14 -75 0
-75 -1999 2000 0
14 -1999 2000 0
-2000 13 -76 0
-76 -2000 2001 0
13 -2000 2001 0
-2001 -121 129 0
129 -2001 2002 0
-121 -2001 2002 0
-2002 -122 130 0
130 -2002 2003 0
-122 -2002 2003 0
-2003 180 -52 0
-52 -2003 2004 0
180 -2003 2004 0
-2004 126 -142 0
-142 -2004 2005 0
126 -2004 2005 0
-2005 179 -51 0
-51 -2005 2006 0
179 -2005 2006 0
-2006 -17 88 0
88 -2006 2007 0
-17 -2006 2007 0
-2007 -18 87 0
87 -2007 2008 0
-18 -2007 2008 0
-2008 125 -141 0
-141 -2008 2009 0
125 -2008 2009 0
-2009 162 -159 0
-159 -2009 2010 0
162 -2009 2010 0
-2010 161 -160 0
-160 -2010 2011 0
161 -2010 2011 0
-2011 156 -146 0
-146 -2011 2012 0
156 -2011 2012 0
-2012 176 -39 0
-39 -2012 2013 0
176 -2012 2013 0
-2013 175 -40 0
-40 -2013 2014 0
175 -2013 2014 0
-2014 155 -145 0
-145 -2014 2015 0
155 -2014 2015 0
-2015 -153 157 0
157 -2015 2016 0
-153 -2015 2016 0
-2016 -154 158 0
158 -2016 2017 0
-154 -2016 2017 0
-2017 -5 79 0
79 -2017 2018 0
-5 -2017 2018 0
-2018 -6 80 0
80 -2018 2019 0
-6 -2018 2019 0
-2019 -115 132 0
132 -2019 2020 0
-115 -2019 2020 0
-2020 -116 131 0
131 -2020 2021 0
-116 -2020 2021 0
-2021 -113 133 0
133 -2021 2022 0
-113 -2021 2022 0
-2022 -114 134 0
134 -2022 2023 0
-114 -2022 2023 0
-2023 4 -90 0
-90 -2023 2024 0
4 -2023 2024 0
-2024 3 -89 0
-89 -2024 2025 0
3 -2024 2025 0
-2025 -163 48 0
48 -2025 2026 0
-163 -2025 2026 0
-2026 166 -54 0
-54 -2026 2027 0
166 -2026 2027 0
-2027 165 -53 0
-53 -2027 2028 0
165 -2027 2028 0
-2028 164 -47 0
-47 -2028 2029 0
164 -2028 2029 0
-2029 -167 43 0
43 -2029 2030 0
-167 -2029 2030 0
-2030 -109 137 0
137 -2030 2031 0
-109 -2030 2031 0
-2031 -110 138 0
138 -2031 2032 0
-110 -2031 2032 0
-2032 -168 44 0
44 -2032 2033 0
-168 -2032 2033 0
-2033 158 -147 0
-147 -2033 2034 0
158 -2033 2034 0
-2034 157 -148 0
-148 -2034 2035 0
157 -2034 2035 0
-2035 72 -177 0
-177 -2035 2036 0
72 -2035 2036 0
-2036 112 -144 0
-144 -2036 2037 0
112 -2036 2037 0
-2037 111 -143 0
-143 -2037 2038 0
111 -2037 2038 0
-2038 71 -178 0
-178 -2038 2039 0
71 -2038 2039 0
-2039 7 -77 0
-77 -2039 2040 0
7 -2039 2040 0
-2040 8 -78 0
-78 -2040 2041 0
8 -2040 2041 0
-2041 -169 41 0
41 -2041 2042 0
-169 -2041 2042 0
-2042 -83 20 0
20 -2042 2043 0
-83 -2042 2043 0
-2043 -170 42 0
42 -2043 2044 0
-170 -2043 2044 0
-2044 84 -19 0
-19 -2044 2045 0
84 -2044 2045 0
-2045 -57 179 0
179 -2045 2046 0
-57 -2045 2046 0
-2046 -58 180 0
180 -2046 2047 0
-58 -2046 2047 0
-2047 117 -140 0
-140 -2047 2048 0
117 -2047 2048 0
-2048 -73 29 0
29 -2048 2049 0
-73 -2048 2049 0
-2049 74 -30 0
-30 -2049 2050 0
74 -2049 2050 0
-2050 56 -173 0
-173 -2050 2051 0
56 -2050 2051 0
-2051 55 -174 0
-174 -2051 2052 0
55 -2051 2052 0
-2052 172 -50 0
-50 -2052 2053 0
172 -2052 2053 0
-2053 171 -49 0
-49 -2053 2054 0
171 -2053 2054 0
-2054 118 -139 0
-139 -2054 2055 0
118 -2054 2055 0
-2055 -91 119 0
119 -2055 2056 0
-91 -2055 2056 0
-2056 92 -120 0
-120 -2056 2057 0
92 -2056 2057 0
-2057 12 -74 0
-74 -2057 2058 0
12 -2057 2058 0
-2058 -11 73 0
73 -2058 2059 0
-11 -2058 2059 0
-2059 80 -24 0
-24 -2059 2060 0
80 -2059 2060 0
-2060 79 -23 0
-23 -2060 2061 0
79 -2060 2061 0
-2061 173 -38 0
-38 -2061 2062 0
173 -2061 2062 0
-2062 -174 37 0
37 -2062 2063 0
-174 -2062 2063 0
-2063 -75 35 0
35 -2063 2064 0
-75 -2063 2064 0
-2064 -76 36 0
36 -2064 2065 0
-76 -2064 2065 0
-2065 -77 26 0
26 -2065 2066 0
-77 -2065 2066 0
-2066 -78 25 0
25 -2066 2067 0
-78 -2066 2067 0
-2067 66 -163 0
-163 -2067 2068 0
66 -2067 2068 0
-2068 -63 176 0
176 -2068 2069 0
-63 -2068 2069 0
-2069 -64 175 0
175 -2069 2070 0
-64 -2069 2070 0
-2070 -65 164 0
164 -2070 2071 0
-65 -2070 2071 0
-2071 22 -18 0
-18 -2071 2072 0
22 -2071 2072 0
-2072 21 -17 0
-17 -2072 2073 0
21 -2072 2073 0
-2073 -85 22 0
22 -2073 2074 0
-85 -2073 2074 0
-2074 -86 21 0
21 -2074 2075 0
-86 -2074 2075 0
-2075 -119 128 0
128 -2075 2076 0
-119 -2075 2076 0
-2076 -120 127 0
127 -2076 2077 0
-120 -2076 2077 0
-2077 62 -167 0
-167 -2077 2078 0
62 -2077 2078 0
-2078 61 -168 0
-168 -2078 2079 0
61 -2078 2079 0
-2079 60 -170 0
-170 -2079 2080 0
60 -2079 2080 0
-2080 59 -169 0
-169 -2080 2081 0
59 -2080 2081 0
-2081 34 -9 0
-9 -2081 2082 0
34 -2081 2082 0
-2082 33 -10 0
-10 -2082 2083 0
33 -2082 2083 0
-2083 28 -14 0
-14 -2083 2084 0
28 -2083 2084 0
-2084 27 -13 0
-13 -2084 2085 0
27 -2084 2085 0
-2085 20 -11 0
-11 -2085 2086 0
20 -2085 2086 0
-2086 19 -12 0
-12 -2086 2087 0
19 -2086 2087 0
-2087 -99 121 0
121 -2087 2088 0
-99 -2087 2088 0
-2088 -100 122 0
122 -2088 2089 0
-100 -2088 2089 0
-2089 108 -123 0
-123 -2089 2090 0
108 -2089 2090 0
-2090 107 -124 0
-124 -2090 2091 0
107 -2090 2091 0
-2091 -103 112 0
112 -2091 2092 0
-103 -2091 2092 0
-2092 -104 111 0
111 -2092 2093 0
-104 -2092 2093 0
-2093 -105 118 0
118 -2093 2094 0
-105 -2093 2094 0
-2094 -106 117 0
117 -2094 2095 0
-106 -2094 2095 0
-2095 -98 114 0
114 -2095 2096 0
-98 -2095 2096 0
-2096 -9 85 0
85 -2096 2097 0
-9 -2096 2097 0
-2097 -10 86 0
86 -2097 2098 0
-10 -2097 2098 0
-2098 97 -113 0
-113 -2098 2099 0
97 -2098 2099 0
-2099 -89 34 0
34 -2099 2100 0
-89 -2099 2100 0
-2100 -90 33 0
33 -2100 2101 0
-90 -2100 2101 0
-2101 94 -125 0
-125 -2101 2102 0
94 -2101 2102 0
-2102 93 -126 0
-126 -2102 2103 0
93 -2102 2103 0
-2103 -15 82 0
82 -2103 2104 0
-15 -2103 2104 0
-2104 -16 81 0
81 -2104 2105 0
-16 -2104 2105 0
-2105 -29 2 0
2 -2105 2106 0
-29 -2105 2106 0
-2106 -30 1 0
1 -2106 2107 0
-30 -2106 2107 0
-2107 -31 3 0
3 -2107 2108 0
-31 -2107 2108 0
-2108 -32 4 0
4 -2108 2109 0
-32 -2108 2109 0
-2109 -35 16 0
16 -2109 2110 0
-35 -2109 2110 0
-2110 -36 15 0
15 -2110 2111 0
-36 -2110 2111 0
-2111 160 -153 0
-153 -2111 2112 0
160 -2111 2112 0
-2112 159 -154 0
-154 -2112 2113 0
159 -2112 2113 0
-2113 -45 68 0
68 -2113 2114 0
-45 -2113 2114 0
-2114 -46 67 0
67 -2114 2115 0
-46 -2114 2115 0
-2115 -102 110 0
110 -2115 2116 0
-102 -2115 2116 0
-2116 101 -109 0
-109 -2116 2117 0
101 -2116 2117 0
-2117 144 -105 0
-105 -2117 2118 0
144 -2117 2118 0
-2118 143 -106 0
-106 -2118 2119 0
143 -2118 2119 0
-2119 -131 98 0
98 -2119 2120 0
-131 -2119 2120 0
-2120 -132 97 0
97 -2120 2121 0
-132 -2120 2121 0
-2121 -67 165 0
165 -2121 2122 0
-67 -2121 2122 0
-2122 -95 115 0
115 -2122 2123 0
-95 -2122 2123 0
-2123 178 -46 0
-46 -2123 2124 0
178 -2123 2124 0
-2124 177 -45 0
-45 -2124 2125 0
177 -2124 2125 0
-2125 -96 116 0
116 -2125 2126 0
-96 -2125 2126 0
-2126 68 -166 0
-166 -2126 2127 0
68 -2126 2127 0
-2127 -123 135 0
135 -2127 2128 0
-123 -2127 2128 0
-2128 133 -96 0
-96 -2128 2129 0
133 -2128 2129 0
-2129 -134 95 0
95 -2129 2130 0
-134 -2129 2130 0
-2130 -124 136 0
136 -2130 2131 0
-124 -2130 2131 0
-2131 38 -66 0
-66 -2131 2132 0
38 -2131 2132 0
-2132 -23 7 0
7 -2132 2133 0
-23 -2132 2133 0
-2133 37 -65 0
-65 -2133 2134 0
37 -2133 2134 0
-2134 -43 60 0
60 -2134 2135 0
-43 -2134 2135 0
-2135 69 -171 0
-171 -2135 2136 0
69 -2135 2136 0
-2136 -70 172 0
172 -2136 2137 0
-70 -2136 2137 0
-2137 -24 8 0
8 -2137 2138 0
-24 -2137 2138 0
-2138 -25 5 0
5 -2138 2139 0
-25 -2138 2139 0
-2139 -81 32 0
32 -2139 2140 0
-81 -2139 2140 0
-2140 -44 59 0
59 -2140 2141 0
-44 -2140 2141 0
-2141 -26 6 0
6 -2141 2142 0
-26 -2141 2142 0
-2142 -82 31 0
31 -2142 2143 0
-82 -2142 2143 0
-2143 -87 28 0
28 -2143 2144 0
-87 -2143 2144 0
-2144 -88 27 0
27 -2144 2145 0
-88 -2144 2145 0
-2145 136 -104 0
-104 -2145 2146 0
136 -2145 2146 0
-2146 -135 103 0
103 -2146 2147 0
-135 -2146 2147 0
-2147 52 -64 0
-64 -2147 2148 0
52 -2147 2148 0
-2148 -127 101 0
101 -2148 2149 0
-127 -2148 2149 0
-2149 -128 102 0
102 -2149 2150 0
-128 -2149 2150 0
-2150 42 -61 0
-61 -2150 2151 0
42 -2150 2151 0
-2151 41 -62 0
-62 -2151 2152 0
41 -2151 2152 0
-2152 51 -63 0
-63 -2152 2153 0
51 -2152 2153 0
-2153 -39 72 0
2154 0
147 -169 0
-169 -2154 2155 0
147 -2154 2155 0
-2155 -148 170 0
170 -2155 2156 0
-148 -2155 2156 0
-2156 152 -163 0
-163 -2156 2157 0
152 -2156 2157 0
-2157 -146 177 0
177 -2157 2158 0
-146 -2157 2158 0
-2158 -151 164 0
164 -2158 2159 0
-151 -2158 2159 0
-2159 145 -178 0
-178 -2159 2160 0
145 -2159 2160 0
-2160 -149 180 0
180 -2160 2161 0
-149 -2160 2161 0
-2161 -1 34 0
34 -2161 2162 0
-1 -2161 2162 0
-2162 -150 179 0
179 -2162 2163 0
-150 -2162 2163 0
-2163 2 -33 0
-33 -2163 2164 0
2 -2163 2164 0
-2164 14 -24 0
-24 -2164 2165 0
14 -2164 2165 0
-2165 13 -23 0
-23 -2165 2166 0
13 -2165 2166 0
-2166 -121 114 0
114 -2166 2167 0
-121 -2166 2167 0
-2167 -122 113 0
113 -2167 2168 0
-122 -2167 2168 0
-2168 180 -39 0
-39 -2168 2169 0
180 -2168 2169 0
-2169 126 -111 0
-111 -2169 2170 0
126 -2169 2170 0
-2170 179 -40 0
-40 -2170 2171 0
179 -2170 2171 0
-2171 -17 22 0
22 -2171 2172 0
-17 -2171 2172 0
-2172 -18 21 0
21 -2172 2173 0
-18 -2172 2173 0
-2173 125 -112 0
-112 -2173 2174 0
125 -2173 2174 0
-2174 162 -165 0
-165 -2174 2175 0
162 -2174 2175 0
-2175 161 -166 0
-166 -2175 2176 0
161 -2175 2176 0
-2176 156 -176 0
-176 -2176 2177 0
156 -2176 2177 0
-2177 176 -42 0
-42 -2177 2178 0
176 -2177 2178 0
-2178 175 -41 0
-41 -2178 2179 0
175 -2178 2179 0
-2179 155 -175 0
-175 -2179 2180 0
155 -2179 2180 0
-2180 -153 173 0
173 -2180 2181 0
-153 -2180 2181 0
-2181 -154 174 0
174 -2181 2182 0
-154 -2181 2182 0
-2182 -5 35 0
35 -2182 2183 0
-5 -2182 2183 0
-2183 -6 36 0
36 -2183 2184 0
-6 -2183 2184 0
-2184 -115 110 0
110 -2184 2185 0
-115 -2184 2185 0
-2185 -116 109 0
109 -2185 2186 0
-116 -2185 2186 0
-2186 -113 125 0
125 -2186 2187 0
-113 -2186 2187 0
-2187 -114 126 0
126 -2187 2188 0
-114 -2187 2188 0
-2188 4 -25 0
-25 -2188 2189 0
4 -2188 2189 0
-2189 3 -26 0
-26 -2189 2190 0
3 -2189 2190 0
-2190 -163 51 0
51 -2190 2191 0
-163 -2190 2191 0
-2191 166 -43 0
-43 -2191 2192 0
166 -2191 2192 0
-2192 165 -44 0
-44 -2192 2193 0
165 -2192 2193 0
-2193 164 -52 0
-52 -2193 2194 0
164 -2193 2194 0
-2194 -167 53 0
53 -2194 2195 0
-167 -2194 2195 0
-2195 -109 124 0
124 -2195 2196 0
-109 -2195 2196 0
-2196 -110 123 0
123 -2196 2197 0
-110 -2196 2197 0
-2197 -168 54 0
54 -2197 2198 0
-168 -2197 2198 0
-2198 158 -168 0
-168 -2198 2199 0
158 -2198 2199 0
-2199 157 -167 0
-167 -2199 2200 0
157 -2199 2200 0
-2200 72 -75 0
-75 -2200 2201 0
72 -2200 2201 0
-2201 112 -116 0
-116 -2201 2202 0
112 -2201 2202 0
-2202 111 -115 0
-115 -2202 2203 0
111 -2202 2203 0
-2203 71 -76 0
-76 -2203 2204 0
71 -2203 2204 0
-2204 7 -20 0
-20 -2204 2205 0
7 -2204 2205 0
-2205 8 -19 0
-19 -2205 2206 0
8 -2205 2206 0
-2206 -169 37 0
37 -2206 2207 0
-169 -2206 2207 0
-2207 -83 157 0
157 -2207 2208 0
-83 -2207 2208 0
-2208 -170 38 0
38 -2208 2209 0
-170 -2208 2209 0
-2209 84 -158 0
-158 -2209 2210 0
84 -2209 2210 0
-2210 -57 79 0
79 -2210 2211 0
-57 -2210 2211 0
-2211 -58 80 0
80 -2211 2212 0
-58 -2211 2212 0
-2212 117 -119 0
-119 -2212 2213 0
117 -2212 2213 0
-2213 -73 159 0
159 -2213 2214 0
-73 -2213 2214 0
-2214 74 -160 0
-160 -2214 2215 0
74 -2214 2215 0
-2215 56 -87 0
-87 -2215 2216 0
56 -2215 2216 0
-2216 55 -88 0
-88 -2216 2217 0
55 -2216 2217 0
-2217 172 -47 0
-47 -2217 2218 0
172 -2217 2218 0
-2218 171 -48 0
-48 -2218 2219 0
171 -2218 2219 0
-2219 118 -120 0
-120 -2219 2220 0
118 -2219 2220 0
-2220 -91 15 0
15 -2220 2221 0
-91 -2220 2221 0
-2221 92 -16 0
-16 -2221 2222 0
92 -2221 2222 0
-2222 12 -31 0
-31 -2222 2223 0
12 -2222 2223 0
-2223 -11 32 0
32 -2223 2224 0
-11 -2223 2224 0
-2224 80 -145 0
-145 -2224 2225 0
80 -2224 2225 0
-2225 79 -146 0
-146 -2225 2226 0
79 -2225 2226 0
-2226 173 -49 0
-49 -2226 2227 0
173 -2226 2227 0
-2227 -174 50 0
50 -2227 2228 0
-174 -2227 2228 0
-2228 -75 152 0
152 -2228 2229 0
-75 -2228 2229 0
-2229 -76 151 0
151 -2229 2230 0
-76 -2229 2230 0
-2230 -77 162 0
162 -2230 2231 0
-77 -2230 2231 0
-2231 -78 161 0
161 -2231 2232 0
-78 -2231 2232 0
-2232 66 -86 0
-86 -2232 2233 0
66 -2232 2233 0
-2233 -63 84 0
84 -2233 2234 0
-63 -2233 2234 0
-2234 -64 83 0
83 -2234 2235 0
-64 -2234 2235 0
-2235 -65 85 0
85 -2235 2236 0
-65 -2235 2236 0
-2236 22 -133 0
-133 -2236 2237 0
22 -2236 2237 0
-2237 21 -134 0
-134 -2237 2238 0
21 -2237 2238 0
-2238 -85 149 0
149 -2238 2239 0
-85 -2238 2239 0
-2239 -86 150 0
150 -2239 2240 0
-86 -2239 2240 0
-2240 -119 121 0
121 -2240 2241 0
-119 -2240 2241 0
-2241 -120 122 0
122 -2241 2242 0
-120 -2241 2242 0
-2242 62 -73 0
-73 -2242 2243 0
62 -2242 2243 0
-2243 61 -74 0
-74 -2243 2244 0
61 -2243 2244 0
-2244 60 -89 0
-89 -2244 2245 0
60 -2244 2245 0
-2245 59 -90 0
-90 -2245 2246 0
59 -2245 2246 0
-2246 34 -135 0
-135 -2246 2247 0
34 -2246 2247 0
-2247 33 -136 0
-136 -2247 2248 0
33 -2247 2248 0
-2248 28 -138 0
-138 -2248 2249 0
28 -2248 2249 0
-2249 27 -137 0
-137 -2249 2250 0
27 -2249 2250 0
-2250 20 -142 0
-142 -2250 2251 0
20 -2250 2251 0
-2251 19 -141 0
-141 -2251 2252 0
19 -2251 2252 0
-2252 -99 12 0
12 -2252 2253 0
-99 -2252 2253 0
-2253 -100 11 0
11 -2253 2254 0
-100 -2253 2254 0
-2254 108 -3 0
-3 -2254 2255 0
108 -2254 2255 0
-2255 107 -4 0
-4 -2255 2256 0
107 -2255 2256 0
-2256 -103 6 0
6 -2256 2257 0
-103 -2256 2257 0
-2257 -104 5 0
5 -2257 2258 0
-104 -2257 2258 0
-2258 -105 10 0
10 -2258 2259 0
-105 -2258 2259 0
-2259 -106 9 0
9 -2259 2260 0
-106 -2259 2260 0
-2260 -98 2 0
2 -2260 2261 0
-98 -2260 2261 0
-2261 -9 29 0
29 -2261 2262 0
-9 -2261 2262 0
-2262 -10 30 0
30 -2262 2263 0
-10 -2262 2263 0
-2263 97 -1 0
-1 -2263 2264 0
97 -2263 2264 0
-2264 -89 147 0
147 -2264 2265 0
-89 -2264 2265 0
-2265 -90 148 0
148 -2265 2266 0
-90 -2265 2266 0
-2266 94 -8 0
-8 -2266 2267 0
94 -2266 2267 0
-2267 93 -7 0
-7 -2267 2268 0
93 -2267 2268 0
-2268 -15 27 0
27 -2268 2269 0
-15 -2268 2269 0
-2269 -16 28 0
28 -2269 2270 0
-16 -2269 2270 0
-2270 -29 140 0
140 -2270 2271 0
-29 -2270 2271 0
-2271 -30 139 0
139 -2271 2272 0
-30 -2271 2272 0
-2272 -31 131 0
131 -2272 2273 0
-31 -2272 2273 0
-2273 -32 132 0
132 -2273 2274 0
-32 -2273 2274 0
-2274 -35 129 0
129 -2274 2275 0
-35 -2274 2275 0
-2275 -36 130 0
130 -2275 2276 0
-36 -2275 2276 0
-2276 160 -171 0
-171 -2276 2277 0
160 -2276 2277 0
-2277 159 -172 0
-172 -2277 2278 0
159 -2277 2278 0
-2278 -45 101 0
101 -2278 2279 0
-45 -2278 2279 0
-2279 -46 102 0
102 -2279 2280 0
-46 -2279 2280 0
-2280 -102 14 0
14 -2280 2281 0
-102 -2280 2281 0
-2281 101 -13 0
-13 -2281 2282 0
101 -2281 2282 0
-2282 144 -58 0
-58 -2282 2283 0
144 -2282 2283 0
-2283 143 -57 0
-57 -2283 2284 0
143 -2283 2284 0
-2284 -131 72 0
72 -2284 2285 0
-131 -2284 2285 0
-2285 -132 71 0
71 -2285 2286 0
-132 -2285 2286 0
-2286 -67 77 0
77 -2286 2287 0
-67 -2286 2287 0
-2287 -95 18 0
18 -2287 2288 0
-95 -2287 2288 0
-2288 178 -45 0
-45 -2288 2289 0
178 -2288 2289 0
-2289 177 -46 0
-46 -2289 2290 0
177 -2289 2290 0
-2290 -96 17 0
17 -2290 2291 0
-96 -2290 2291 0
-2291 68 -78 0
-78 -2291 2292 0
68 -2291 2292 0
-2292 -123 117 0
117 -2292 2293 0
-123 -2292 2293 0
-2293 133 -56 0
-56 -2293 2294 0
133 -2293 2294 0
-2294 -134 55 0
55 -2294 2295 0
-134 -2294 2295 0
-2295 -124 118 0
118 -2295 2296 0
-124 -2295 2296 0
-2296 38 -105 0
-105 -2296 2297 0
38 -2296 2297 0
-2297 -23 143 0
143 -2297 2298 0
-23 -2297 2298 0
-2298 37 -106 0
-106 -2298 2299 0
37 -2298 2299 0
-2299 -43 92 0
92 -2299 2300 0
-43 -2299 2300 0
-2300 69 -82 0
-82 -2300 2301 0
69 -2300 2301 0
-2301 -70 81 0
81 -2301 2302 0
-70 -2301 2302 0
-2302 -24 144 0
144 -2302 2303 0
-24 -2302 2303 0
-2303 -25 128 0
128 -2303 2304 0
-25 -2303 2304 0
-2304 -81 156 0
156 -2304 2305 0
-81 -2304 2305 0
-2305 -44 91 0
91 -2305 2306 0
-44 -2305 2306 0
-2306 -26 127 0
127 -2306 2307 0
-26 -2306 2307 0
-2307 -82 155 0
155 -2307 2308 0
-82 -2307 2308 0
-2308 -87 154 0
154 -2308 2309 0
-87 -2308 2309 0
-2309 -88 153 0
153 -2309 2310 0
-88 -2309 2310 0
-2310 136 -66 0
-66 -2310 2311 0
136 -2310 2311 0
-2311 -135 65 0
65 -2311 2312 0
-135 -2311 2312 0
-2312 52 -99 0
-99 -2312 2313 0
52 -2312 2313 0
-2313 -127 70 0
70 -2313 2314 0
-127 -2313 2314 0
-2314 -128 69 0
69 -2314 2315 0
-128 -2314 2315 0
-2315 42 -108 0
-108 -2315 2316 0
42 -2315 2316 0
-2316 41 -107 0
-107 -2316 2317 0
41 -2316 2317 0
-2317 51 -100 0
-100 -2317 2318 0
51 -2317 2318 0
-2318 -39 98 0
98 -2318 2319 0
-39 -2318 2319 0
-2319 -40 97 0
2320 0
-1 56 0
56 -2320 2321 0
-1 -2320 2321 0
-2321 2 -55 0
-55 -2321 2322 0
2 -2321 2322 0
-2322 14 -68 0
-68 -2322 2323 0
14 -2322 2323 0
-2323 13 -67 0
-67 -2323 2324 0
13 -2323 2324 0
-2324 -121 86 0
86 -2324 2325 0
-121 -2324 2325 0
-2325 -122 85 0
85 -2325 2326 0
-122 -2325 2326 0
-2326 180 -108 0
-108 -2326 2327 0
180 -2326 2327 0
-2327 126 -90 0
-90 -2327 2328 0
126 -2327 2328 0
-2328 179 -107 0
-107 -2328 2329 0
179 -2328 2329 0
-2329 -17 71 0
71 -2329 2330 0
-17 -2329 2330 0
-2330 -18 72 0
72 -2330 2331 0
-18 -2330 2331 0
-2331 125 -89 0
-89 -2331 2332 0
125 -2331 2332 0
-2332 176 -103 0
-103 -2332 2333 0
176 -2332 2333 0
-2333 175 -104 0
-104 -2333 2334 0
175 -2333 2334 0
-2334 -5 60 0
60 -2334 2335 0
-5 -2334 2335 0
-2335 -6 59 0
59 -2335 2336 0
-6 -2335 2336 0
-2336 -115 80 0
80 -2336 2337 0
-115 -2336 2337 0
-2337 -116 79 0
79 -2337 2338 0
-116 -2337 2338 0
-2338 -113 78 0
78 -2338 2339 0
-113 -2338 2339 0
-2339 -114 77 0
77 -2339 2340 0
-114 -2339 2340 0
-2340 4 -58 0
-58 -2340 2341 0
4 -2340 2341 0
-2341 3 -57 0
-57 -2341 2342 0
3 -2341 2342 0
-2342 -163 92 0
92 -2342 2343 0
-163 -2342 2343 0
-2343 166 -93 0
-93 -2343 2344 0
166 -2343 2344 0
-2344 165 -94 0
-94 -2344 2345 0
165 -2344 2345 0
-2345 164 -91 0
-91 -2345 2346 0
164 -2345 2346 0
-2346 -167 95 0
95 -2346 2347 0
-167 -2346 2347 0
-2347 -109 73 0
73 -2347 2348 0
-109 -2347 2348 0
-2348 -110 74 0
74 -2348 2349 0
-110 -2348 2349 0
-2349 -168 96 0
96 -2349 2350 0
-168 -2349 2350 0
-2350 72 -143 0
-143 -2350 2351 0
72 -2350 2351 0
-2351 112 -75 0
-75 -2351 2352 0
112 -2351 2352 0
-2352 111 -76 0
-76 -2352 2353 0
111 -2352 2353 0
-2353 71 -144 0
-144 -2353 2354 0
71 -2353 2354 0
-2354 7 -61 0
-61 -2354 2355 0
7 -2354 2355 0
-2355 8 -62 0
-62 -2355 2356 0
8 -2355 2356 0
-2356 -169 98 0
98 -2356 2357 0
-169 -2356 2357 0
-2357 -83 173 0
173 -2357 2358 0
-83 -2357 2358 0
-2358 -170 97 0
97 -2358 2359 0
-170 -2358 2359 0
-2359 84 -174 0
-174 -2359 2360 0
84 -2359 2360 0
-2360 -57 130 0
130 -2360 2361 0
-57 -2360 2361 0
-2361 -58 129 0
129 -2361 2362 0
-58 -2361 2362 0
-2362 117 -81 0
-81 -2362 2363 0
117 -2362 2363 0
-2363 -73 163 0
163 -2363 2364 0
-73 -2363 2364 0
-2364 74 -164 0
-164 -2364 2365 0
74 -2364 2365 0
-2365 56 -128 0
-128 -2365 2366 0
56 -2365 2366 0
-2366 55 -127 0
-127 -2366 2367 0
55 -2366 2367 0
-2367 172 -99 0
-99 -2367 2368 0
172 -2367 2368 0
-2368 171 -100 0
-100 -2368 2369 0
171 -2368 2369 0
-2369 118 -82 0
-82 -2369 2370 0
118 -2369 2370 0
-2370 -91 2 0
2 -2370 2371 0
-91 -2370 2371 0
-2371 92 -1 0
-1 -2371 2372 0
92 -2371 2372 0
-2372 12 -65 0
-65 -2372 2373 0
12 -2372 2373 0
-2373 -11 66 0
66 -2373 2374 0
-11 -2373 2374 0
-2374 80 -169 0
-169 -2374 2375 0
80 -2374 2375 0
-2375 79 -170 0
-170 -2375 2376 0
79 -2375 2376 0
-2376 173 -102 0
-102 -2376 2377 0
173 -2376 2377 0
-2377 -174 101 0
101 -2377 2378 0
-174 -2377 2378 0
-2378 -75 166 0
166 -2378 2379 0
-75 -2378 2379 0
-2379 -76 165 0
165 -2379 2380 0
-76 -2379 2380 0
-2380 -77 168 0
168 -2380 2381 0
-77 -2380 2381 0
-2381 -78 167 0
167 -2381 2382 0
-78 -2381 2382 0
-2382 66 -138 0
-138 -2382 2383 0
66 -2382 2383 0
-2383 -63 135 0
135 -2383 2384 0
-63 -2383 2384 0
-2384 -64 136 0
136 -2384 2385 0
-64 -2384 2385 0
-2385 -65 137 0
137 -2385 2386 0
-65 -2385 2386 0
-2386 22 -39 0
-39 -2386 2387 0
22 -2386 2387 0
-2387 21 -40 0
-40 -2387 2388 0
21 -2387 2388 0
-2388 -85 176 0
176 -2388 2389 0
-85 -2388 2389 0
-2389 -86 175 0
175 -2389 2390 0
-86 -2389 2390 0
-2390 -119 84 0
84 -2390 2391 0
-119 -2390 2391 0
-2391 -120 83 0
83 -2391 2392 0
-120 -2391 2392 0
-2392 62 -134 0
-134 -2392 2393 0
62 -2392 2393 0
-2393 61 -133 0
-133 -2393 2394 0
61 -2393 2394 0
-2394 60 -132 0
-132 -2394 2395 0
60 -2394 2395 0
-2395 59 -131 0
-131 -2395 2396 0
59 -2395 2396 0
-2396 34 -51 0
-51 -2396 2397 0
34 -2396 2397 0
-2397 33 -52 0
-52 -2397 2398 0
33 -2397 2398 0
-2398 28 -46 0
-46 -2398 2399 0
28 -2398 2399 0
-2399 27 -45 0
-45 -2399 2400 0
27 -2399 2400 0
-2400 20 -38 0
-38 -2400 2401 0
20 -2400 2401 0
-2401 19 -37 0
-37 -2401 2402 0
19 -2401 2402 0
-2402 -99 9 0
9 -2402 2403 0
-99 -2402 2403 0
-2403 -100 10 0
10 -2403 2404 0
-100 -2403 2404 0
-2404 108 -18 0
-18 -2404 2405 0
108 -2404 2405 0
-2405 107 -17 0
-17 -2405 2406 0
107 -2405 2406 0
-2406 -103 14 0
14 -2406 2407 0
-103 -2406 2407 0
-2407 -104 13 0
13 -2407 2408 0
-104 -2407 2408 0
-2408 -105 15 0
15 -2408 2409 0
-105 -2408 2409 0
-2409 -106 16 0
16 -2409 2410 0
-106 -2409 2410 0
-2410 -98 7 0
7 -2410 2411 0
-98 -2410 2411 0
-2411 -9 63 0
63 -2411 2412 0
-9 -2411 2412 0
-2412 -10 64 0
64 -2412 2413 0
-10 -2412 2413 0
-2413 97 -8 0
-8 -2413 2414 0
97 -2413 2414 0
-2414 -89 179 0
179 -2414 2415 0
-89 -2414 2415 0
-2415 -90 180 0
180 -2415 2416 0
-90 -2415 2416 0
-2416 94 -3 0
-3 -2416 2417 0
94 -2416 2417 0
-2417 93 -4 0
-4 -2417 2418 0
93 -2417 2418 0
-2418 -15 69 0
69 -2418 2419 0
-15 -2418 2419 0
-2419 -16 70 0
70 -2419 2420 0
-16 -2419 2420 0
-2420 -29 48 0
48 -2420 2421 0
-29 -2420 2421 0
-2421 -30 47 0
47 -2421 2422 0
-30 -2421 2422 0
-2422 -31 49 0
49 -2422 2423 0
-31 -2422 2423 0
-2423 -32 50 0
50 -2423 2424 0
-32 -2423 2424 0
-2424 -35 54 0
54 -2424 2425 0
-35 -2424 2425 0
-2425 -36 53 0
53 -2425 2426 0
-36 -2425 2426 0
-2426 -45 117 0
117 -2426 2427 0
-45 -2426 2427 0
-2427 -46 118 0
118 -2427 2428 0
-46 -2427 2428 0
-2428 -102 12 0
12 -2428 2429 0
-102 -2428 2429 0
-2429 101 -11 0
-11 -2429 2430 0
101 -2429 2430 0
-2430 144 -35 0
-35 -2430 2431 0
144 -2430 2431 0
-2431 143 -36 0
-36 -2431 2432 0
143 -2431 2432 0
-2432 -131 23 0
23 -2432 2433 0
-131 -2432 2433 0
-2433 -132 24 0
24 -2433 2434 0
-132 -2433 2434 0
-2434 -67 139 0
139 -2434 2435 0
-67 -2434 2435 0
-2435 -95 6 0
6 -2435 2436 0
-95 -2435 2436 0
-2436 178 -105 0
-105 -2436 2437 0
178 -2436 2437 0
-2437 177 -106 0
-106 -2437 2438 0
177 -2437 2438 0
-2438 -96 5 0
5 -2438 2439 0
-96 -2438 2439 0
-2439 68 -140 0
-140 -2439 2440 0
68 -2439 2440 0
-2440 -123 87 0
87 -2440 2441 0
-123 -2440 2441 0
-2441 133 -25 0
-25 -2441 2442 0
133 -2441 2442 0
-2442 -134 26 0
26 -2442 2443 0
-134 -2442 2443 0
-2443 -124 88 0
88 -2443 2444 0
-124 -2443 2444 0
-2444 38 -110 0
-110 -2444 2445 0
38 -2444 2445 0
-2445 -23 42 0
42 -2445 2446 0
-23 -2445 2446 0
-2446 37 -109 0
-109 -2446 2447 0
37 -2446 2447 0
-2447 -43 115 0
115 -2447 2448 0
-43 -2447 2448 0
-2448 69 -141 0
-141 -2448 2449 0
69 -2448 2449 0
-2449 -70 142 0
142 -2449 2450 0
-70 -2449 2450 0
-2450 -24 41 0
41 -2450 2451 0
-24 -2450 2451 0
-2451 -25 43 0
43 -2451 2452 0
-25 -2451 2452 0
-2452 -81 171 0
171 -2452 2453 0
-81 -2452 2453 0
-2453 -44 116 0
116 -2453 2454 0
-44 -2453 2454 0
-2454 -26 44 0
44 -2454 2455 0
-26 -2454 2455 0
-2455 -82 172 0
172 -2455 2456 0
-82 -2455 2456 0
-2456 -87 178 0
178 -2456 2457 0
-87 -2456 2457 0
-2457 -88 177 0
177 -2457 2458 0
-88 -2457 2458 0
-2458 136 -27 0
-27 -2458 2459 0
136 -2458 2459 0
-2459 -135 28 0
28 -2459 2460 0
-135 -2459 2460 0
-2460 52 -123 0
-123 -2460 2461 0
52 -2460 2461 0
-2461 -127 19 0
19 -2461 2462 0
-127 -2461 2462 0
-2462 -128 20 0
20 -2462 2463 0
-128 -2462 2463 0
-2463 42 -113 0
-113 -2463 2464 0
42 -2463 2464 0
-2464 41 -114 0
2465 0
156 -159 0
-159 -2465 2466 0
156 -2465 2466 0
-2466 155 -160 0
-160 -2466 2467 0
155 -2466 2467 0
-2467 72 -36 0
-36 -2467 2468 0
72 -2467 2468 0
-2468 71 -35 0
-35 -2468 2469 0
71 -2468 2469 0
-2469 -83 51 0
51 -2469 2470 0
-83 -2469 2470 0
-2470 84 -52 0
-52 -2470 2471 0
84 -2470 2471 0
-2471 -57 21 0
21 -2471 2472 0
-57 -2471 2472 0
-2472 -58 22 0
22 -2472 2473 0
-58 -2472 2473 0
-2473 -73 38 0
38 -2473 2474 0
-73 -2473 2474 0
-2474 74 -37 0
-37 -2474 2475 0
74 -2474 2475 0
-2475 56 -20 0
-20 -2475 2476 0
56 -2475 2476 0
-2476 55 -19 0
-19 -2476 2477 0
55 -2476 2477 0
-2477 -91 127 0
127 -2477 2478 0
-91 -2477 2478 0
-2478 92 -128 0
-128 -2478 2479 0
92 -2478 2479 0
-2479 12 -16 0
-16 -2479 2480 0
12 -2479 2480 0
-2480 -11 15 0
15 -2480 2481 0
-11 -2480 2481 0
-2481 80 -43 0
-43 -2481 2482 0
80 -2481 2482 0
-2482 79 -44 0
-44 -2482 2483 0
79 -2482 2483 0
-2483 173 -178 0
-178 -2483 2484 0
173 -2483 2484 0
-2484 -174 177 0
177 -2484 2485 0
-174 -2484 2485 0
-2485 -75 40 0
40 -2485 2486 0
-75 -2485 2486 0
-2486 -76 39 0
39 -2486 2487 0
-76 -2486 2487 0
-2487 -77 42 0
42 -2487 2488 0
-77 -2487 2488 0
-2488 -78 41 0
41 -2488 2489 0
-78 -2488 2489 0
-2489 66 -34 0
-34 -2489 2490 0
66 -2489 2490 0
-2490 -63 27 0
27 -2490 2491 0
-63 -2490 2491 0
-2491 -64 28 0
28 -2491 2492 0
-64 -2491 2492 0
-2492 -65 33 0
33 -2492 2493 0
-65 -2492 2493 0
-2493 22 -93 0
-93 -2493 2494 0
22 -2493 2494 0
-2494 21 -94 0
-94 -2494 2495 0
21 -2494 2495 0
-2495 -85 50 0
50 -2495 2496 0
-85 -2495 2496 0
-2496 -86 49 0
49 -2496 2497 0
-86 -2496 2497 0
-2497 -119 124 0
124 -2497 2498 0
-119 -2497 2498 0
-2498 -120 123 0
123 -2498 2499 0
-120 -2498 2499 0
-2499 62 -26 0
-26 -2499 2500 0
62 -2499 2500 0
-2500 61 -25 0
-25 -2500 2501 0
61 -2500 2501 0
-2501 60 -24 0
-24 -2501 2502 0
60 -2501 2502 0
-2502 59 -23 0
-23 -2502 2503 0
59 -2502 2503 0
-2503 34 -102 0
-102 -2503 2504 0
34 -2503 2504 0
-2504 33 -101 0
-101 -2504 2505 0
33 -2504 2505 0
-2505 28 -100 0
-100 -2505 2506 0
28 -2505 2506 0
-2506 27 -99 0
-99 -2506 2507 0
27 -2506 2507 0
-2507 20 -92 0
-92 -2507 2508 0
20 -2507 2508 0
-2508 19 -91 0
-91 -2508 2509 0
19 -2508 2509 0
-2509 -99 135 0
135 -2509 2510 0
-99 -2509 2510 0
-2510 -100 136 0
136 -2510 2511 0
-100 -2510 2511 0
-2511 108 -143 0
-143 -2511 2512 0
108 -2511 2512 0
-2512 107 -144 0
-144 -2512 2513 0
107 -2512 2513 0
-2513 -103 140 0
140 -2513 2514 0
-103 -2513 2514 0
-2514 -104 139 0
139 -2514 2515 0
-104 -2514 2515 0
-2515 -105 137 0
137 -2515 2516 0
-105 -2515 2516 0
-2516 -106 138 0
138 -2516 2517 0
-106 -2516 2517 0
-2517 -98 134 0
134 -2517 2518 0
-98 -2517 2518 0
-2518 97 -133 0
-133 -2518 2519 0
97 -2518 2519 0
-2519 -89 54 0
54 -2519 2520 0
-89 -2519 2520 0
-2520 -90 53 0
53 -2520 2521 0
-90 -2520 2521 0
-2521 94 -129 0
-129 -2521 2522 0
94 -2521 2522 0
-2522 93 -130 0
-130 -2522 2523 0
93 -2522 2523 0
-2523 -15 12 0
12 -2523 2524 0
-15 -2523 2524 0
-2524 -16 11 0
11 -2524 2525 0
-16 -2524 2525 0
-2525 -29 106 0
106 -2525 2526 0
-29 -2525 2526 0
-2526 -30 105 0
105 -2526 2527 0
-30 -2526 2527 0
-2527 -31 103 0
103 -2527 2528 0
-31 -2527 2528 0
-2528 -32 104 0
104 -2528 2529 0
-32 -2528 2529 0
-2529 -35 108 0
108 -2529 2530 0
-35 -2529 2530 0
-2530 -36 107 0
107 -2530 2531 0
-36 -2530 2531 0
-2531 160 -156 0
-156 -2531 2532 0
160 -2531 2532 0
-2532 159 -155 0
-155 -2532 2533 0
159 -2532 2533 0
-2533 -45 63 0
63 -2533 2534 0
-45 -2533 2534 0
-2534 -46 64 0
64 -2534 2535 0
-46 -2534 2535 0
-2535 -102 142 0
142 -2535 2536 0
-102 -2535 2536 0
-2536 101 -141 0
-141 -2536 2537 0
101 -2536 2537 0
-2537 144 -89 0
-89 -2537 2538 0
144 -2537 2538 0
-2538 143 -90 0
-90 -2538 2539 0
143 -2538 2539 0
-2539 -131 78 0
78 -2539 2540 0
-131 -2539 2540 0
-2540 -132 77 0
77 -2540 2541 0
-132 -2540 2541 0
-2541 -67 31 0
31 -2541 2542 0
-67 -2541 2542 0
-2542 -95 131 0
131 -2542 2543 0
-95 -2542 2543 0
-2543 178 -173 0
-173 -2543 2544 0
178 -2543 2544 0
-2544 177 -174 0
-174 -2544 2545 0
177 -2544 2545 0
-2545 -96 132 0
132 -2545 2546 0
-96 -2545 2546 0
-2546 68 -32 0
-32 -2546 2547 0
68 -2546 2547 0
-2547 -123 120 0
120 -2547 2548 0
-123 -2547 2548 0
-2548 133 -79 0
-79 -2548 2549 0
133 -2548 2549 0
-2549 -134 80 0
80 -2549 2550 0
-134 -2549 2550 0
-2550 -124 119 0
119 -2550 2551 0
-124 -2550 2551 0
-2551 38 -55 0
-55 -2551 2552 0
38 -2551 2552 0
-2552 -23 95 0
95 -2552 2553 0
-23 -2552 2553 0
-2553 37 -56 0
-56 -2553 2554 0
37 -2553 2554 0
-2554 -43 61 0
61 -2554 2555 0
-43 -2554 2555 0
-2555 69 -29 0
-29 -2555 2556 0
69 -2555 2556 0
-2556 -70 30 0
30 -2556 2557 0
-70 -2556 2557 0
-2557 -24 96 0
96 -2557 2558 0
-24 -2557 2558 0
-2558 -25 98 0
98 -2558 2559 0
-25 -2558 2559 0
-2559 -81 46 0
46 -2559 2560 0
-81 -2559 2560 0
-2560 -44 62 0
62 -2560 2561 0
-44 -2560 2561 0
-2561 -26 97 0
97 -2561 2562 0
-26 -2561 2562 0
-2562 -82 45 0
45 -2562 2563 0
-82 -2562 2563 0
-2563 -87 47 0
47 -2563 2564 0
-87 -2563 2564 0
-2564 -88 48 0
48 -2564 2565 0
-88 -2564 2565 0
-2565 136 -81 0
-81 -2565 2566 0
136 -2565 2566 0
-2566 -135 82 0
82 -2566 2567 0
-135 -2566 2567 0
-2567 52 -66 0
2568 0
-1 56 0
56 -2568 2569 0
-1 -2568 2569 0
-2569 2 -55 0
-55 -2569 2570 0
2 -2569 2570 0
-2570 14 -68 0
-68 -2570 2571 0
14 -2570 2571 0
-2571 13 -67 0
-67 -2571 2572 0
13 -2571 2572 0
-2572 -121 86 0
86 -2572 2573 0
-121 -2572 2573 0
-2573 -122 85 0
85 -2573 2574 0
-122 -2573 2574 0
-2574 180 -108 0
-108 -2574 2575 0
180 -2574 2575 0
-2575 126 -90 0
-90 -2575 2576 0
126 -2575 2576 0
-2576 179 -107 0
-107 -2576 2577 0
179 -2576 2577 0
-2577 -17 71 0
71 -2577 2578 0
-17 -2577 2578 0
-2578 -18 72 0
72 -2578 2579 0
-18 -2578 2579 0
-2579 125 -89 0
-89 -2579 2580 0
125 -2579 2580 0
-2580 176 -103 0
-103 -2580 2581 0
176 -2580 2581 0
-2581 175 -104 0
-104 -2581 2582 0
175 -2581 2582 0
-2582 -5 60 0
60 -2582 2583 0
-5 -2582 2583 0
-2583 -6 59 0
59 -2583 2584 0
-6 -2583 2584 0
-2584 -115 80 0
80 -2584 2585 0
-115 -2584 2585 0
-2585 -116 79 0
79 -2585 2586 0
-116 -2585 2586 0
-2586 -113 78 0
78 -2586 2587 0
-113 -2586 2587 0
-2587 -114 77 0
77 -2587 2588 0
-114 -2587 2588 0
-2588 4 -58 0
-58 -2588 2589 0
4 -2588 2589 0
-2589 3 -57 0
-57 -2589 2590 0
3 -2589 2590 0
-2590 -163 92 0
92 -2590 2591 0
-163 -2590 2591 0
-2591 166 -93 0
-93 -2591 2592 0
166 -2591 2592 0
-2592 165 -94 0
-94 -2592 2593 0
165 -2592 2593 0
-2593 164 -91 0
-91 -2593 2594 0
164 -2593 2594 0
-2594 -167 95 0
95 -2594 2595 0
-167 -2594 2595 0
-2595 -109 73 0
73 -2595 2596 0
-109 -2595 2596 0
-2596 -110 74 0
74 -2596 2597 0
-110 -2596 2597 0
-2597 -168 96 0
96 -2597 2598 0
-168 -2597 2598 0
-2598 72 -143 0
-143 -2598 2599 0
72 -2598 2599 0
-2599 112 -75 0
-75 -2599 2600 0
112 -2599 2600 0
-2600 111 -76 0
-76 -2600 2601 0
111 -2600 2601 0
-2601 71 -144 0
-144 -2601 2602 0
71 -2601 2602 0
-2602 7 -61 0
-61 -2602 2603 0
7 -2602 2603 0
-2603 8 -62 0
-62 -2603 2604 0
8 -2603 2604 0
-2604 -169 98 0
98 -2604 2605 0
-169 -2604 2605 0
-2605 -83 173 0
173 -2605 2606 0
-83 -2605 2606 0
-2606 -170 97 0
97 -2606 2607 0
-170 -2606 2607 0
-2607 84 -174 0
-174 -2607 2608 0
84 -2607 2608 0
-2608 -57 130 0
130 -2608 2609 0
-57 -2608 2609 0
-2609 -58 129 0
129 -2609 2610 0
-58 -2609 2610 0
-2610 117 -81 0
-81 -2610 2611 0
117 -2610 2611 0
-2611 -73 163 0
163 -2611 2612 0
-73 -2611 2612 0
-2612 74 -164 0
-164 -2612 2613 0
74 -2612 2613 0
-2613 56 -128 0
-128 -2613 2614 0
56 -2613 2614 0
-2614 55 -127 0
-127 -2614 2615 0
55 -2614 2615 0
-2615 172 -99 0
-99 -2615 2616 0
172 -2615 2616 0
-2616 171 -100 0
-100 -2616 2617 0
171 -2616 2617 0
-2617 118 -82 0
-82 -2617 2618 0
118 -2617 2618 0
-2618 -91 2 0
2 -2618 2619 0
-91 -2618 2619 0
-2619 92 -1 0
-1 -2619 2620 0
92 -2619 2620 0
-2620 12 -65 0
-65 -2620 2621 0
12 -2620 2621 0
-2621 -11 66 0
66 -2621 2622 0
-11 -2621 2622 0
-2622 80 -169 0
-169 -2622 2623 0
80 -2622 2623 0
-2623 79 -170 0
-170 -2623 2624 0
79 -2623 2624 0
-2624 173 -102 0
-102 -2624 2625 0
173 -2624 2625 0
-2625 -174 101 0
101 -2625 2626 0
-174 -2625 2626 0
-2626 -75 166 0
166 -2626 2627 0
-75 -2626 2627 0
-2627 -76 165 0
165 -2627 2628 0
-76 -2627 2628 0
-2628 -77 168 0
168 -2628 2629 0
-77 -2628 2629 0
-2629 -78 167 0
167 -2629 2630 0
-78 -2629 2630 0
-2630 66 -138 0
-138 -2630 2631 0
66 -2630 2631 0
-2631 -63 135 0
135 -2631 2632 0
-63 -2631 2632 0
-2632 -64 136 0
136 -2632 2633 0
-64 -2632 2633 0
-2633 -65 137 0
137 -2633 2634 0
-65 -2633 2634 0
-2634 22 -39 0
-39 -2634 2635 0
22 -2634 2635 0
-2635 21 -40 0
-40 -2635 2636 0
21 -2635 2636 0
-2636 -85 176 0
176 -2636 2637 0
-85 -2636 2637 0
-2637 -86 175 0
175 -2637 2638 0
-86 -2637 2638 0
-2638 -119 84 0
84 -2638 2639 0
-119 -2638 2639 0
-2639 -120 83 0
83 -2639 2640 0
-120 -2639 2640 0
-2640 62 -134 0
-134 -2640 2641 0
62 -2640 2641 0
-2641 61 -133 0
-133 -2641 2642 0
61 -2641 2642 0
-2642 60 -132 0
-132 -2642 2643 0
60 -2642 2643 0
-2643 59 -131 0
-131 -2643 2644 0
59 -2643 2644 0
-2644 34 -51 0
-51 -2644 2645 0
34 -2644 2645 0
-2645 33 -52 0
-52 -2645 2646 0
33 -2645 2646 0
-2646 28 -46 0
-46 -2646 2647 0
28 -2646 2647 0
-2647 27 -45 0
-45 -2647 2648 0
27 -2647 2648 0
-2648 20 -38 0
-38 -2648 2649 0
20 -2648 2649 0
-2649 19 -37 0
-37 -2649 2650 0
19 -2649 2650 0
-2650 -99 9 0
9 -2650 2651 0
-99 -2650 2651 0
-2651 -100 10 0
10 -2651 2652 0
-100 -2651 2652 0
-2652 108 -18 0
-18 -2652 2653 0
108 -2652 2653 0
-2653 107 -17 0
-17 -2653 2654 0
107 -2653 2654 0
-2654 -103 14 0
14 -2654 2655 0
-103 -2654 2655 0
-2655 -104 13 0
13 -2655 2656 0
-104 -2655 2656 0
-2656 -105 15 0
15 -2656 2657 0
-105 -2656 2657 0
-2657 -106 16 0
16 -2657 2658 0
-106 -2657 2658 0
-2658 -98 7 0
7 -2658 2659 0
-98 -2658 2659 0
-2659 -9 63 0
63 -2659 2660 0
-9 -2659 2660 0
-2660 -10 64 0
64 -2660 2661 0
-10 -2660 2661 0
-2661 97 -8 0
-8 -2661 2662 0
97 -2661 2662 0
-2662 -89 179 0
179 -2662 2663 0
-89 -2662 2663 0
-2663 -90 180 0
180 -2663 2664 0
-90 -2663 2664 0
-2664 94 -3 0
-3 -2664 2665 0
94 -2664 2665 0
-2665 93 -4 0
-4 -2665 2666 0
93 -2665 2666 0
-2666 -15 69 0
69 -2666 2667 0
-15 -2666 2667 0
-2667 -16 70 0
70 -2667 2668 0
-16 -2667 2668 0
-2668 -29 48 0
48 -2668 2669 0
-29 -2668 2669 0
-2669 -30 47 0
47 -2669 2670 0
-30 -2669 2670 0
-2670 -31 49 0
49 -2670 2671 0
-31 -2670 2671 0
-2671 -32 50 0
50 -2671 2672 0
-32 -2671 2672 0
-2672 -35 54 0
54 -2672 2673 0
-35 -2672 2673 0
-2673 -36 53 0
53 -2673 2674 0
-36 -2673 2674 0
-2674 -45 117 0
117 -2674 2675 0
-45 -2674 2675 0
-2675 -46 118 0
118 -2675 2676 0
-46 -2675 2676 0
-2676 -102 12 0
12 -2676 2677 0
-102 -2676 2677 0
-2677 101 -11 0
-11 -2677 2678 0
101 -2677 2678 0
-2678 144 -35 0
-35 -2678 2679 0
144 -2678 2679 0
-2679 143 -36 0
-36 -2679 2680 0
143 -2679 2680 0
-2680 -131 23 0
23 -2680 2681 0
-131 -2680 2681 0
-2681 -132 24 0
24 -2681 2682 0
-132 -2681 2682 0
-2682 -67 139 0
139 -2682 2683 0
-67 -2682 2683 0
-2683 -95 6 0
6 -2683 2684 0
-95 -2683 2684 0
-2684 178 -105 0
-105 -2684 2685 0
178 -2684 2685 0
-2685 177 -106 0
-106 -2685 2686 0
177 -2685 2686 0
-2686 -96 5 0
5 -2686 2687 0
-96 -2686 2687 0
-2687 68 -140 0
-140 -2687 2688 0
68 -2687 2688 0
-2688 -123 87 0
87 -2688 2689 0
-123 -2688 2689 0
-2689 133 -25 0
-25 -2689 2690 0
133 -2689 2690 0
-2690 -134 26 0
26 -2690 2691 0
-134 -2690 2691 0
-2691 -124 88 0
88 -2691 2692 0
-124 -2691 2692 0
-2692 38 -110 0
-110 -2692 2693 0
38 -2692 2693 0
-2693 -23 42 0
42 -2693 2694 0
-23 -2693 2694 0
-2694 37 -109 0
-109 -2694 2695 0
37 -2694 2695 0
-2695 -43 115 0
115 -2695 2696 0
-43 -2695 2696 0
-2696 69 -141 0
-141 -2696 2697 0
69 -2696 2697 0
-2697 -70 142 0
142 -2697 2698 0
-70 -2697 2698 0
-2698 -24 41 0
41 -2698 2699 0
-24 -2698 2699 0
-2699 -25 43 0
43 -2699 2700 0
-25 -2699 2700 0
-2700 -81 171 0
171 -2700 2701 0
-81 -2700 2701 0
-2701 -44 116 0
116 -2701 2702 0
-44 -2701 2702 0
-2702 -26 44 0
44 -2702 2703 0
-26 -2702 2703 0
-2703 -82 172 0
172 -2703 2704 0
-82 -2703 2704 0
-2704 -87 178 0
178 -2704 2705 0
-87 -2704 2705 0
-2705 -88 177 0
177 -2705 2706 0
-88 -2705 2706 0
-2706 136 -27 0
-27 -2706 2707 0
136 -2706 2707 0
-2707 -135 28 0
28 -2707 2708 0
-135 -2707 2708 0
-2708 52 -123 0
-123 -2708 2709 0
52 -2708 2709 0
-2709 -127 19 0
19 -2709 2710 0
-127 -2709 2710 0
-2710 -128 20 0
20 -2710 2711 0
-128 -2710 2711 0
-2711 42 -113 0
-113 -2711 2712 0
42 -2711 2712 0
-2712 41 -114 0
2713 0
147 -9 0
-9 -2713 2714 0
147 -2713 2714 0
-2714 -148 10 0
10 -2714 2715 0
-148 -2714 2715 0
-2715 152 -11 0
-11 -2715 2716 0
152 -2715 2716 0
-2716 -146 14 0
14 -2716 2717 0
-146 -2716 2717 0
-2717 -151 12 0
12 -2717 2718 0
-151 -2717 2718 0
-2718 145 -13 0
-13 -2718 2719 0
145 -2718 2719 0
-2719 -149 2 0
2 -2719 2720 0
-149 -2719 2720 0
-2720 -1 85 0
85 -2720 2721 0
-1 -2720 2721 0
-2721 -150 1 0
1 -2721 2722 0
-150 -2721 2722 0
-2722 2 -86 0
-86 -2722 2723 0
2 -2722 2723 0
-2723 14 -80 0
-80 -2723 2724 0
14 -2723 2724 0
-2724 13 -79 0
-79 -2724 2725 0
13 -2724 2725 0
-2725 -121 115 0
115 -2725 2726 0
-121 -2725 2726 0
-2726 -122 116 0
116 -2726 2727 0
-122 -2726 2727 0
-2727 180 -33 0
-33 -2727 2728 0
180 -2727 2728 0
-2728 126 -123 0
-123 -2728 2729 0
126 -2728 2729 0
-2729 179 -34 0
-34 -2729 2730 0
179 -2729 2730 0
-2730 -17 87 0
87 -2730 2731 0
-17 -2730 2731 0
-2731 -18 88 0
88 -2731 2732 0
-18 -2731 2732 0
-2732 125 -124 0
-124 -2732 2733 0
125 -2732 2733 0
-2733 162 -15 0
-15 -2733 2734 0
162 -2733 2734 0
-2734 161 -16 0
-16 -2734 2735 0
161 -2734 2735 0
-2735 156 -3 0
-3 -2735 2736 0
156 -2735 2736 0
-2736 176 -26 0
-26 -2736 2737 0
176 -2736 2737 0
-2737 175 -25 0
-25 -2737 2738 0
175 -2737 2738 0
-2738 155 -4 0
-4 -2738 2739 0
155 -2738 2739 0
-2739 -153 17 0
17 -2739 2740 0
-153 -2739 2740 0
-2740 -154 18 0
18 -2740 2741 0
-154 -2740 2741 0
-2741 -5 74 0
74 -2741 2742 0
-5 -2741 2742 0
-2742 -6 73 0
73 -2742 2743 0
-6 -2742 2743 0
-2743 -115 119 0
119 -2743 2744 0
-115 -2743 2744 0
-2744 -116 120 0
120 -2744 2745 0
-116 -2744 2745 0
-2745 -113 109 0
109 -2745 2746 0
-113 -2745 2746 0
-2746 -114 110 0
110 -2746 2747 0
-114 -2746 2747 0
-2747 4 -82 0
-82 -2747 2748 0
4 -2747 2748 0
-2748 3 -81 0
-81 -2748 2749 0
3 -2748 2749 0
-2749 -163 32 0
32 -2749 2750 0
-163 -2749 2750 0
-2750 166 -28 0
-28 -2750 2751 0
166 -2750 2751 0
-2751 165 -27 0
-27 -2751 2752 0
165 -2751 2752 0
-2752 164 -31 0
-31 -2752 2753 0
164 -2752 2753 0
-2753 -167 19 0
19 -2753 2754 0
-167 -2753 2754 0
-2754 -109 122 0
122 -2754 2755 0
-109 -2754 2755 0
-2755 -110 121 0
121 -2755 2756 0
-110 -2755 2756 0
-2756 -168 20 0
20 -2756 2757 0
-168 -2756 2757 0
-2757 158 -7 0
-7 -2757 2758 0
158 -2757 2758 0
-2758 157 -8 0
-8 -2758 2759 0
157 -2758 2759 0
-2759 72 -51 0
-51 -2759 2760 0
72 -2759 2760 0
-2760 112 -118 0
-118 -2760 2761 0
112 -2760 2761 0
-2761 111 -117 0
-117 -2761 2762 0
111 -2761 2762 0
-2762 71 -52 0
-52 -2762 2763 0
71 -2762 2763 0
-2763 7 -84 0
-84 -2763 2764 0
7 -2763 2764 0
-2764 8 -83 0
-83 -2764 2765 0
8 -2764 2765 0
-2765 -169 29 0
29 -2765 2766 0
-169 -2765 2766 0
-2766 -83 94 0
94 -2766 2767 0
-83 -2766 2767 0
-2767 -170 30 0
30 -2767 2768 0
-170 -2767 2768 0
-2768 84 -93 0
-93 -2768 2769 0
84 -2768 2769 0
-2769 -57 46 0
46 -2769 2770 0
-57 -2769 2770 0
-2770 -58 45 0
45 -2770 2771 0
-58 -2770 2771 0
-2771 117 -126 0
-126 -2771 2772 0
117 -2771 2772 0
-2772 -73 104 0
104 -2772 2773 0
-73 -2772 2773 0
-2773 74 -103 0
-103 -2773 2774 0
74 -2773 2774 0
-2774 56 -50 0
-50 -2774 2775 0
56 -2774 2775 0
-2775 55 -49 0
-49 -2775 2776 0
55 -2775 2776 0
-2776 172 -35 0
-35 -2776 2777 0
172 -2776 2777 0
-2777 171 -36 0
-36 -2777 2778 0
171 -2777 2778 0
-2778 118 -125 0
-125 -2778 2779 0
118 -2778 2779 0
-2779 -91 67 0
67 -2779 2780 0
-91 -2779 2780 0
-2780 92 -68 0
-68 -2780 2781 0
92 -2780 2781 0
-2781 12 -75 0
-75 -2781 2782 0
12 -2781 2782 0
-2782 -11 76 0
76 -2782 2783 0
-11 -2782 2783 0
-2783 80 -101 0
-101 -2783 2784 0
80 -2783 2784 0
-2784 79 -102 0
-102 -2784 2785 0
79 -2784 2785 0
-2785 173 -22 0
-22 -2785 2786 0
173 -2785 2786 0
-2786 -174 21 0
21 -2786 2787 0
-174 -2786 2787 0
-2787 -75 100 0
100 -2787 2788 0
-75 -2787 2788 0
-2788 -76 99 0
99 -2788 2789 0
-76 -2788 2789 0
-2789 -77 91 0
91 -2789 2790 0
-77 -2789 2790 0
-2790 -78 92 0
92 -2790 2791 0
-78 -2790 2791 0
-2791 66 -40 0
-40 -2791 2792 0
66 -2791 2792 0
-2792 -63 54 0
54 -2792 2793 0
-63 -2792 2793 0
-2793 -64 53 0
53 -2793 2794 0
-64 -2793 2794 0
-2794 -65 39 0
39 -2794 2795 0
-65 -2794 2795 0
-2795 22 -154 0
-154 -2795 2796 0
22 -2795 2796 0
-2796 21 -153 0
-153 -2796 2797 0
21 -2796 2797 0
-2797 -85 98 0
98 -2797 2798 0
-85 -2797 2798 0
-2798 -86 97 0
97 -2798 2799 0
-86 -2798 2799 0
-2799 -119 111 0
111 -2799 2800 0
-119 -2799 2800 0
-2800 -120 112 0
112 -2800 2801 0
-120 -2800 2801 0
-2801 62 -47 0
-47 -2801 2802 0
62 -2801 2802 0
-2802 61 -48 0
-48 -2802 2803 0
61 -2802 2803 0
-2803 60 -37 0
-37 -2803 2804 0
60 -2803 2804 0
-2804 59 -38 0
-38 -2804 2805 0
59 -2804 2805 0
-2805 34 -149 0
-149 -2805 2806 0
34 -2805 2806 0
-2806 33 -150 0
-150 -2806 2807 0
33 -2806 2807 0
-2807 28 -161 0
-161 -2807 2808 0
28 -2807 2808 0
-2808 27 -162 0
-162 -2808 2809 0
27 -2808 2809 0
-2809 20 -158 0
-158 -2809 2810 0
20 -2809 2810 0
-2810 19 -157 0
-157 -2810 2811 0
19 -2810 2811 0
-2811 -99 72 0
72 -2811 2812 0
-99 -2811 2812 0
-2812 -100 71 0
71 -2812 2813 0
-100 -2812 2813 0
-2813 108 -70 0
-70 -2813 2814 0
108 -2813 2814 0
-2814 107 -69 0
-69 -2814 2815 0
107 -2814 2815 0
-2815 -103 62 0
62 -2815 2816 0
-103 -2815 2816 0
-2816 -104 61 0
61 -2816 2817 0
-104 -2816 2817 0
-2817 -105 60 0
60 -2817 2818 0
-105 -2817 2818 0
-2818 -106 59 0
59 -2818 2819 0
-106 -2818 2819 0
-2819 -98 66 0
66 -2819 2820 0
-98 -2819 2820 0
-2820 -9 90 0
90 -2820 2821 0
-9 -2820 2821 0
-2821 -10 89 0
89 -2821 2822 0
-10 -2821 2822 0
-2822 97 -65 0
-65 -2822 2823 0
97 -2822 2823 0
-2823 -89 106 0
106 -2823 2824 0
-89 -2823 2824 0
-2824 -90 105 0
105 -2824 2825 0
-90 -2824 2825 0
-2825 94 -64 0
-64 -2825 2826 0
94 -2825 2826 0
-2826 93 -63 0
-63 -2826 2827 0
93 -2826 2827 0
-2827 -15 77 0
77 -2827 2828 0
-15 -2827 2828 0
-2828 -16 78 0
78 -2828 2829 0
-16 -2828 2829 0
-2829 -29 148 0
148 -2829 2830 0
-29 -2829 2830 0
-2830 -30 147 0
147 -2830 2831 0
-30 -2830 2831 0
-2831 -31 152 0
152 -2831 2832 0
-31 -2831 2832 0
-2832 -32 151 0
151 -2832 2833 0
-32 -2832 2833 0
-2833 -35 160 0
160 -2833 2834 0
-35 -2833 2834 0
-2834 -36 159 0
159 -2834 2835 0
-36 -2834 2835 0
-2835 160 -6 0
-6 -2835 2836 0
160 -2835 2836 0
-2836 159 -5 0
-5 -2836 2837 0
159 -2836 2837 0
-2837 -45 143 0
143 -2837 2838 0
-45 -2837 2838 0
-2838 -46 144 0
144 -2838 2839 0
-46 -2838 2839 0
-2839 -102 58 0
58 -2839 2840 0
-102 -2839 2840 0
-2840 101 -57 0
-57 -2840 2841 0
101 -2840 2841 0
-2841 144 -178 0
-178 -2841 2842 0
144 -2841 2842 0
-2842 143 -177 0
-177 -2842 2843 0
143 -2842 2843 0
-2843 -131 163 0
163 -2843 2844 0
-131 -2843 2844 0
-2844 -132 164 0
164 -2844 2845 0
-132 -2844 2845 0
-2845 -67 44 0
44 -2845 2846 0
-67 -2845 2846 0
-2846 -95 55 0
55 -2846 2847 0
-95 -2846 2847 0
-2847 178 -23 0
-23 -2847 2848 0
178 -2847 2848 0
-2848 177 -24 0
-24 -2848 2849 0
177 -2848 2849 0
-2849 -96 56 0
56 -2849 2850 0
-96 -2849 2850 0
-2850 68 -43 0
-43 -2850 2851 0
68 -2850 2851 0
-2851 -123 114 0
114 -2851 2852 0
-123 -2851 2852 0
-2852 133 -174 0
-174 -2852 2853 0
133 -2852 2853 0
-2853 -134 173 0
173 -2853 2854 0
-134 -2853 2854 0
-2854 -124 113 0
113 -2854 2855 0
-124 -2854 2855 0
-2855 38 -139 0
-139 -2855 2856 0
38 -2855 2856 0
-2856 -23 146 0
146 -2856 2857 0
-23 -2856 2857 0
-2857 37 -140 0
-140 -2857 2858 0
37 -2857 2858 0
-2858 -43 138 0
138 -2858 2859 0
-43 -2858 2859 0
-2859 69 -41 0
-41 -2859 2860 0
69 -2859 2860 0
-2860 -70 42 0
42 -2860 2861 0
-70 -2860 2861 0
-2861 -24 145 0
145 -2861 2862 0
-24 -2861 2862 0
-2862 -25 155 0
155 -2862 2863 0
-25 -2862 2863 0
-2863 -81 108 0
108 -2863 2864 0
-81 -2863 2864 0
-2864 -44 137 0
137 -2864 2865 0
-44 -2864 2865 0
-2865 -26 156 0
156 -2865 2866 0
-26 -2865 2866 0
-2866 -82 107 0
107 -2866 2867 0
-82 -2866 2867 0
-2867 -87 95 0
95 -2867 2868 0
-87 -2867 2868 0
-2868 -88 96 0
96 -2868 2869 0
-88 -2868 2869 0
-2869 136 -179 0
-179 -2869 2870 0
136 -2869 2870 0
-2870 -135 180 0
180 -2870 2871 0
-135 -2870 2871 0
-2871 52 -131 0
-131 -2871 2872 0
52 -2871 2872 0
-2872 -127 175 0
175 -2872 2873 0
-127 -2872 2873 0
-2873 -128 176 0
2874 0
-45 136 0
136 -2874 2875 0
-45 -2874 2875 0
-2875 -46 135 0
135 -2875 2876 0
-46 -2875 2876 0
-2876 144 -54 0
-54 -2876 2877 0
144 -2876 2877 0
-2877 143 -53 0
-53 -2877 2878 0
143 -2877 2878 0
-2878 -131 41 0
41 -2878 2879 0
-131 -2878 2879 0
-2879 -132 42 0
42 -2879 2880 0
-132 -2879 2880 0
-2880 133 -44 0
-44 -2880 2881 0
133 -2880 2881 0
-2881 -134 43 0
43 -2881 2882 0
-134 -2881 2882 0
-2882 38 -127 0
-127 -2882 2883 0
38 -2882 2883 0
-2883 37 -128 0
-128 -2883 2884 0
37 -2883 2884 0
-2884 -43 134 0
134 -2884 2885 0
-43 -2884 2885 0
-2885 -44 133 0
133 -2885 2886 0
-44 -2885 2886 0
-2886 136 -46 0
-46 -2886 2887 0
136 -2886 2887 0
-2887 -135 45 0
45 -2887 2888 0
-135 -2887 2888 0
-2888 52 -142 0
-142 -2888 2889 0
52 -2888 2889 0
-2889 -127 38 0
38 -2889 2890 0
-127 -2889 2890 0
-2890 -128 37 0
37 -2890 2891 0
-128 -2890 2891 0
-2891 42 -131 0
-131 -2891 2892 0
42 -2891 2892 0
-2892 41 -132 0
-132 -2892 2893 0
41 -2892 2893 0
-2893 51 -141 0
-141 -2893 2894 0
51 -2893 2894 0
-2894 -39 130 0
130 -2894 2895 0
-39 -2894 2895 0
-2895 -40 129 0
2896 0
156 -159 0
-159 -2896 2897 0
156 -2896 2897 0
-2897 155 -160 0
-160 -2897 2898 0
155 -2897 2898 0
-2898 72 -54 0
-54 -2898 2899 0
72 -2898 2899 0
-2899 71 -53 0
-53 -2899 2900 0
71 -2899 2900 0
-2900 -83 141 0
141 -2900 2901 0
-83 -2900 2901 0
-2901 84 -142 0
-142 -2901 2902 0
84 -2901 2902 0
-2902 -57 39 0
39 -2902 2903 0
-57 -2902 2903 0
-2903 -58 40 0
40 -2903 2904 0
-58 -2903 2904 0
-2904 -73 127 0
127 -2904 2905 0
-73 -2904 2905 0
-2905 74 -128 0
-128 -2905 2906 0
74 -2905 2906 0
-2906 56 -38 0
-38 -2906 2907 0
56 -2906 2907 0
-2907 55 -37 0
-37 -2907 2908 0
55 -2907 2908 0
-2908 -91 20 0
20 -2908 2909 0
-91 -2908 2909 0
-2909 92 -19 0
-19 -2909 2910 0
92 -2909 2910 0
-2910 12 -16 0
-16 -2910 2911 0
12 -2910 2911 0
-2911 -11 15 0
15 -2911 2912 0
-11 -2911 2912 0
-2912 80 -134 0
-134 -2912 2913 0
80 -2912 2913 0
-2913 79 -133 0
-133 -2913 2914 0
79 -2913 2914 0
-2914 173 -178 0
-178 -2914 2915 0
173 -2914 2915 0
-2915 -174 177 0
177 -2915 2916 0
-174 -2915 2916 0
-2916 -75 130 0
130 -2916 2917 0
-75 -2916 2917 0
-2917 -76 129 0
129 -2917 2918 0
-76 -2917 2918 0
-2918 -77 132 0
132 -2918 2919 0
-77 -2918 2919 0
-2919 -78 131 0
131 -2919 2920 0
-78 -2919 2920 0
-2920 66 -52 0
-52 -2920 2921 0
66 -2920 2921 0
-2921 -63 45 0
45 -2921 2922 0
-63 -2921 2922 0
-2922 -64 46 0
46 -2922 2923 0
-64 -2922 2923 0
-2923 -65 51 0
51 -2923 2924 0
-65 -2923 2924 0
-2924 22 -58 0
-58 -2924 2925 0
22 -2924 2925 0
-2925 21 -57 0
-57 -2925 2926 0
21 -2925 2926 0
-2926 -85 139 0
139 -2926 2927 0
-85 -2926 2927 0
-2927 -86 140 0
140 -2927 2928 0
-86 -2927 2928 0
-2928 -119 124 0
124 -2928 2929 0
-119 -2928 2929 0
-2929 -120 123 0
123 -2929 2930 0
-120 -2929 2930 0
-2930 62 -44 0
-44 -2930 2931 0
62 -2930 2931 0
-2931 61 -43 0
-43 -2931 2932 0
61 -2931 2932 0
-2932 60 -42 0
-42 -2932 2933 0
60 -2932 2933 0
-2933 59 -41 0
-41 -2933 2934 0
59 -2933 2934 0
-2934 34 -66 0
-66 -2934 2935 0
34 -2934 2935 0
-2935 33 -65 0
-65 -2935 2936 0
33 -2935 2936 0
-2936 28 -64 0
-64 -2936 2937 0
28 -2936 2937 0
-2937 27 -63 0
-63 -2937 2938 0
27 -2937 2938 0
-2938 20 -55 0
-55 -2938 2939 0
20 -2938 2939 0
-2939 19 -56 0
-56 -2939 2940 0
19 -2939 2940 0
-2940 -99 27 0
27 -2940 2941 0
-99 -2940 2941 0
-2941 -100 28 0
28 -2941 2942 0
-100 -2941 2942 0
-2942 108 -35 0
-35 -2942 2943 0
108 -2942 2943 0
-2943 107 -36 0
-36 -2943 2944 0
107 -2943 2944 0
-2944 -103 32 0
32 -2944 2945 0
-103 -2944 2945 0
-2945 -104 31 0
31 -2945 2946 0
-104 -2945 2946 0
-2946 -105 29 0
29 -2946 2947 0
-105 -2946 2947 0
-2947 -106 30 0
30 -2947 2948 0
-106 -2947 2948 0
-2948 -98 25 0
25 -2948 2949 0
-98 -2948 2949 0
-2949 97 -26 0
-26 -2949 2950 0
97 -2949 2950 0
-2950 -89 144 0
144 -2950 2951 0
-89 -2950 2951 0
-2951 -90 143 0
143 -2951 2952 0
-90 -2951 2952 0
-2952 94 -21 0
-21 -2952 2953 0
94 -2952 2953 0
-2953 93 -22 0
-22 -2953 2954 0
93 -2953 2954 0
-2954 -15 12 0
12 -2954 2955 0
-15 -2954 2955 0
-2955 -16 11 0
11 -2955 2956 0
-16 -2955 2956 0
-2956 -29 70 0
70 -2956 2957 0
-29 -2956 2957 0
-2957 -30 69 0
69 -2957 2958 0
-30 -2957 2958 0
-2958 -31 68 0
68 -2958 2959 0
-31 -2958 2959 0
-2959 -32 67 0
67 -2959 2960 0
-32 -2959 2960 0
-2960 -35 71 0
71 -2960 2961 0
-35 -2960 2961 0
-2961 -36 72 0
72 -2961 2962 0
-36 -2961 2962 0
-2962 160 -155 0
-155 -2962 2963 0
160 -2962 2963 0
-2963 159 -156 0
-156 -2963 2964 0
159 -2963 2964 0
-2964 -45 82 0
82 -2964 2965 0
-45 -2964 2965 0
-2965 -46 81 0
81 -2965 2966 0
-46 -2965 2966 0
-2966 -102 34 0
34 -2966 2967 0
-102 -2966 2967 0
-2967 101 -33 0
-33 -2967 2968 0
101 -2967 2968 0
-2968 144 -107 0
-107 -2968 2969 0
144 -2968 2969 0
-2969 143 -108 0
-108 -2969 2970 0
143 -2969 2970 0
-2970 -131 95 0
95 -2970 2971 0
-131 -2970 2971 0
-2971 -132 96 0
96 -2971 2972 0
-132 -2971 2972 0
-2972 -67 50 0
50 -2972 2973 0
-67 -2972 2973 0
-2973 -95 23 0
23 -2973 2974 0
-95 -2973 2974 0
-2974 178 -173 0
-173 -2974 2975 0
178 -2974 2975 0
-2975 177 -174 0
-174 -2975 2976 0
177 -2975 2976 0
-2976 -96 24 0
24 -2976 2977 0
-96 -2976 2977 0
-2977 68 -49 0
-49 -2977 2978 0
68 -2977 2978 0
-2978 -123 120 0
120 -2978 2979 0
-123 -2978 2979 0
-2979 133 -97 0
-97 -2979 2980 0
133 -2979 2980 0
-2980 -134 98 0
98 -2980 2981 0
-134 -2980 2981 0
-2981 -124 119 0
119 -2981 2982 0
-124 -2981 2982 0
-2982 38 -74 0
-74 -2982 2983 0
38 -2982 2983 0
-2983 -23 59 0
59 -2983 2984 0
-23 -2983 2984 0
-2984 37 -73 0
-73 -2984 2985 0
37 -2984 2985 0
-2985 -43 80 0
80 -2985 2986 0
-43 -2985 2986 0
-2986 69 -48 0
-48 -2986 2987 0
69 -2986 2987 0
-2987 -70 47 0
47 -2987 2988 0
-70 -2987 2988 0
-2988 -24 60 0
60 -2988 2989 0
-24 -2988 2989 0
-2989 -25 61 0
61 -2989 2990 0
-25 -2989 2990 0
-2990 -81 136 0
136 -2990 2991 0
-81 -2990 2991 0
-2991 -44 79 0
79 -2991 2992 0
-44 -2991 2992 0
-2992 -26 62 0
62 -2992 2993 0
-26 -2992 2993 0
-2993 -82 135 0
135 -2993 2994 0
-82 -2993 2994 0
-2994 -87 137 0
137 -2994 2995 0
-87 -2994 2995 0
-2995 -88 138 0
138 -2995 2996 0
-88 -2995 2996 0
-2996 136 -100 0
2997 0
147 -9 0
-9 -2997 2998 0
147 -2997 2998 0
-2998 -148 10 0
10 -2998 2999 0
-148 -2998 2999 0
-2999 152 -11 0
-11 -2999 3000 0
152 -2999 3000 0
-3000 -146 14 0
14 -3000 3001 0
-146 -3000 3001 0
-3001 -151 12 0
12 -3001 3002 0
-151 -3001 3002 0
-3002 145 -13 0
-13 -3002 3003 0
145 -3002 3003 0
-3003 -149 2 0
2 -3003 3004 0
-149 -3003 3004 0
-3004 -1 85 0
85 -3004 3005 0
-1 -3004 3005 0
-3005 -150 1 0
1 -3005 3006 0
-150 -3005 3006 0
-3006 2 -86 0
-86 -3006 3007 0
2 -3006 3007 0
-3007 14 -80 0
-80 -3007 3008 0
14 -3007 3008 0
-3008 13 -79 0
-79 -3008 3009 0
13 -3008 3009 0
-3009 -121 115 0
115 -3009 3010 0
-121 -3009 3010 0
-3010 -122 116 0
116 -3010 3011 0
-122 -3010 3011 0
-3011 180 -33 0
-33 -3011 3012 0
180 -3011 3012 0
-3012 126 -123 0
-123 -3012 3013 0
126 -3012 3013 0
-3013 179 -34 0
-34 -3013 3014 0
179 -3013 3014 0
-3014 -17 87 0
87 -3014 3015 0
-17 -3014 3015 0
-3015 -18 88 0
88 -3015 3016 0
-18 -3015 3016 0
-3016 125 -124 0
-124 -3016 3017 0
125 -3016 3017 0
-3017 162 -15 0
-15 -3017 3018 0
162 -3017 3018 0
-3018 161 -16 0
-16 -3018 3019 0
161 -3018 3019 0
-3019 156 -3 0
-3 -3019 3020 0
156 -3019 3020 0
-3020 176 -26 0
-26 -3020 3021 0
176 -3020 3021 0
-3021 175 -25 0
-25 -3021 3022 0
175 -3021 3022 0
-3022 155 -4 0
-4 -3022 3023 0
155 -3022 3023 0
-3023 -153 17 0
17 -3023 3024 0
-153 -3023 3024 0
-3024 -154 18 0
18 -3024 3025 0
-154 -3024 3025 0
-3025 -5 74 0
74 -3025 3026 0
-5 -3025 3026 0
-3026 -6 73 0
73 -3026 3027 0
-6 -3026 3027 0
-3027 -115 119 0
119 -3027 3028 0
-115 -3027 3028 0
-3028 -116 120 0
120 -3028 3029 0
-116 -3028 3029 0
-3029 -113 109 0
109 -3029 3030 0
-113 -3029 3030 0
-3030 -114 110 0
110 -3030 3031 0
-114 -3030 3031 0
-3031 4 -82 0
-82 -3031 3032 0
4 -3031 3032 0
-3032 3 -81 0
-81 -3032 3033 0
3 -3032 3033 0
-3033 -163 32 0
32 -3033 3034 0
-163 -3033 3034 0
-3034 166 -28 0
-28 -3034 3035 0
166 -3034 3035 0
-3035 165 -27 0
-27 -3035 3036 0
165 -3035 3036 0
-3036 164 -31 0
-31 -3036 3037 0
164 -3036 3037 0
-3037 -167 19 0
19 -3037 3038 0
-167 -3037 3038 0
-3038 -109 122 0
122 -3038 3039 0
-109 -3038 3039 0
-3039 -110 121 0
121 -3039 3040 0
-110 -3039 3040 0
-3040 -168 20 0
20 -3040 3041 0
-168 -3040 3041 0
-3041 158 -7 0
-7 -3041 3042 0
158 -3041 3042 0
-3042 157 -8 0
-8 -3042 3043 0
157 -3042 3043 0
-3043 72 -51 0
-51 -3043 3044 0
72 -3043 3044 0
-3044 112 -118 0
-118 -3044 3045 0
112 -3044 3045 0
-3045 111 -117 0
-117 -3045 3046 0
111 -3045 3046 0
-3046 71 -52 0
-52 -3046 3047 0
71 -3046 3047 0
-3047 7 -84 0
-84 -3047 3048 0
7 -3047 3048 0
-3048 8 -83 0
-83 -3048 3049 0
8 -3048 3049 0
-3049 -169 29 0
29 -3049 3050 0
-169 -3049 3050 0
-3050 -83 94 0
94 -3050 3051 0
-83 -3050 3051 0
-3051 -170 30 0
30 -3051 3052 0
-170 -3051 3052 0
-3052 84 -93 0
-93 -3052 3053 0
84 -3052 3053 0
-3053 -57 46 0
46 -3053 3054 0
-57 -3053 3054 0
-3054 -58 45 0
45 -3054 3055 0
-58 -3054 3055 0
-3055 117 -126 0
-126 -3055 3056 0
117 -3055 3056 0
-3056 -73 104 0
104 -3056 3057 0
-73 -3056 3057 0
-3057 74 -103 0
-103 -3057 3058 0
74 -3057 3058 0
-3058 56 -50 0
-50 -3058 3059 0
56 -3058 3059 0
-3059 55 -49 0
-49 -3059 3060 0
55 -3059 3060 0
-3060 172 -35 0
-35 -3060 3061 0
172 -3060 3061 0
-3061 171 -36 0
-36 -3061 3062 0
171 -3061 3062 0
-3062 118 -125 0
-125 -3062 3063 0
118 -3062 3063 0
-3063 -91 67 0
67 -3063 3064 0
-91 -3063 3064 0
-3064 92 -68 0
-68 -3064 3065 0
92 -3064 3065 0
-3065 12 -75 0
-75 -3065 3066 0
12 -3065 3066 0
-3066 -11 76 0
76 -3066 3067 0
-11 -3066 3067 0
-3067 80 -101 0
-101 -3067 3068 0
80 -3067 3068 0
-3068 79 -102 0
-102 -3068 3069 0
79 -3068 3069 0
-3069 173 -22 0
-22 -3069 3070 0
173 -3069 3070 0
-3070 -174 21 0
21 -3070 3071 0
-174 -3070 3071 0
-3071 -75 100 0
100 -3071 3072 0
-75 -3071 3072 0
-3072 -76 99 0
99 -3072 3073 0
-76 -3072 3073 0
-3073 -77 91 0
91 -3073 3074 0
-77 -3073 3074 0
-3074 -78 92 0
92 -3074 3075 0
-78 -3074 3075 0
-3075 66 -40 0
-40 -3075 3076 0
66 -3075 3076 0
-3076 -63 54 0
54 -3076 3077 0
-63 -3076 3077 0
-3077 -64 53 0
53 -3077 3078 0
-64 -3077 3078 0
-3078 -65 39 0
39 -3078 3079 0
-65 -3078 3079 0
-3079 22 -154 0
-154 -3079 3080 0
22 -3079 3080 0
-3080 21 -153 0
-153 -3080 3081 0
21 -3080 3081 0
-3081 -85 98 0
98 -3081 3082 0
-85 -3081 3082 0
-3082 -86 97 0
97 -3082 3083 0
-86 -3082 3083 0
-3083 -119 111 0
111 -3083 3084 0
-119 -3083 3084 0
-3084 -120 112 0
112 -3084 3085 0
-120 -3084 3085 0
-3085 62 -47 0
-47 -3085 3086 0
62 -3085 3086 0
-3086 61 -48 0
-48 -3086 3087 0
61 -3086 3087 0
-3087 60 -37 0
-37 -3087 3088 0
60 -3087 3088 0
-3088 59 -38 0
-38 -3088 3089 0
59 -3088 3089 0
-3089 34 -149 0
-149 -3089 3090 0
34 -3089 3090 0
-3090 33 -150 0
-150 -3090 3091 0
33 -3090 3091 0
-3091 28 -161 0
-161 -3091 3092 0
28 -3091 3092 0
-3092 27 -162 0
-162 -3092 3093 0
27 -3092 3093 0
-3093 20 -158 0
-158 -3093 3094 0
20 -3093 3094 0
-3094 19 -157 0
-157 -3094 3095 0
19 -3094 3095 0
-3095 -99 72 0
72 -3095 3096 0
-99 -3095 3096 0
-3096 -100 71 0
71 -3096 3097 0
-100 -3096 3097 0
-3097 108 -70 0
-70 -3097 3098 0
108 -3097 3098 0
-3098 107 -69 0
-69 -3098 3099 0
107 -3098 3099 0
-3099 -103 61 0
61 -3099 3100 0
-103 -3099 3100 0
-3100 -104 62 0
62 -3100 3101 0
-104 -3100 3101 0
-3101 -105 60 0
60 -3101 3102 0
-105 -3101 3102 0
-3102 -106 59 0
59 -3102 3103 0
-106 -3102 3103 0
-3103 -98 66 0
66 -3103 3104 0
-98 -3103 3104 0
-3104 -9 90 0
90 -3104 3105 0
-9 -3104 3105 0
-3105 -10 89 0
89 -3105 3106 0
-10 -3105 3106 0
-3106 97 -65 0
-65 -3106 3107 0
97 -3106 3107 0
-3107 -89 106 0
106 -3107 3108 0
-89 -3107 3108 0
-3108 -90 105 0
105 -3108 3109 0
-90 -3108 3109 0
-3109 94 -64 0
-64 -3109 3110 0
94 -3109 3110 0
-3110 93 -63 0
-63 -3110 3111 0
93 -3110 3111 0
-3111 -15 77 0
77 -3111 3112 0
-15 -3111 3112 0
-3112 -16 78 0
78 -3112 3113 0
-16 -3112 3113 0
-3113 -29 148 0
148 -3113 3114 0
-29 -3113 3114 0
-3114 -30 147 0
147 -3114 3115 0
-30 -3114 3115 0
-3115 -31 152 0
152 -3115 3116 0
-31 -3115 3116 0
-3116 -32 151 0
151 -3116 3117 0
-32 -3116 3117 0
-3117 -35 160 0
160 -3117 3118 0
-35 -3117 3118 0
-3118 -36 159 0
159 -3118 3119 0
-36 -3118 3119 0
-3119 160 -6 0
-6 -3119 3120 0
160 -3119 3120 0
-3120 159 -5 0
-5 -3120 3121 0
159 -3120 3121 0
-3121 -45 143 0
143 -3121 3122 0
-45 -3121 3122 0
-3122 -46 144 0
144 -3122 3123 0
-46 -3122 3123 0
-3123 -102 58 0
58 -3123 3124 0
-102 -3123 3124 0
-3124 101 -57 0
-57 -3124 3125 0
101 -3124 3125 0
-3125 144 -178 0
-178 -3125 3126 0
144 -3125 3126 0
-3126 143 -177 0
-177 -3126 3127 0
143 -3126 3127 0
-3127 -131 163 0
163 -3127 3128 0
-131 -3127 3128 0
-3128 -132 164 0
164 -3128 3129 0
-132 -3128 3129 0
-3129 -67 44 0
44 -3129 3130 0
-67 -3129 3130 0
-3130 -95 55 0
55 -3130 3131 0
-95 -3130 3131 0
-3131 178 -23 0
-23 -3131 3132 0
178 -3131 3132 0
-3132 177 -24 0
-24 -3132 3133 0
177 -3132 3133 0
-3133 -96 56 0
56 -3133 3134 0
-96 -3133 3134 0
-3134 68 -43 0
-43 -3134 3135 0
68 -3134 3135 0
-3135 -123 114 0
114 -3135 3136 0
-123 -3135 3136 0
-3136 133 -174 0
-174 -3136 3137 0
133 -3136 3137 0
-3137 -134 173 0
173 -3137 3138 0
-134 -3137 3138 0
-3138 -124 113 0
113 -3138 3139 0
-124 -3138 3139 0
-3139 38 -139 0
-139 -3139 3140 0
38 -3139 3140 0
-3140 -23 146 0
146 -3140 3141 0
-23 -3140 3141 0
-3141 37 -140 0
-140 -3141 3142 0
37 -3141 3142 0
-3142 -43 138 0
138 -3142 3143 0
-43 -3142 3143 0
-3143 69 -41 0
-41 -3143 3144 0
69 -3143 3144 0
-3144 -70 42 0
42 -3144 3145 0
-70 -3144 3145 0
-3145 -24 145 0
145 -3145 3146 0
-24 -3145 3146 0
-3146 -25 155 0
155 -3146 3147 0
-25 -3146 3147 0
-3147 -81 108 0
108 -3147 3148 0
-81 -3147 3148 0
-3148 -44 137 0
137 -3148 3149 0
-44 -3148 3149 0
-3149 -26 156 0
156 -3149 3150 0
-26 -3149 3150 0
-3150 -82 107 0
107 -3150 3151 0
-82 -3150 3151 0
-3151 -87 95 0
95 -3151 3152 0
-87 -3151 3152 0
-3152 -88 96 0
96 -3152 3153 0
-88 -3152 3153 0
-3153 136 -179 0
-179 -3153 3154 0
136 -3153 3154 0
-3154 -135 180 0
180 -3154 3155 0
-135 -3154 3155 0
-3155 52 -131 0
-131 -3155 3156 0
52 -3155 3156 0
-3156 -127 175 0
175 -3156 3157 0
-127 -3156 3157 0
-3157 -128 176 0
176 -3157 3158 0
-128 -3157 3158 0
-3158 42 -127 0
3159 0
156 -159 0
-159 -3159 3160 0
156 -3159 3160 0
-3160 155 -160 0
-160 -3160 3161 0
155 -3160 3161 0
-3161 72 -36 0
-36 -3161 3162 0
72 -3161 3162 0
-3162 71 -35 0
-35 -3162 3163 0
71 -3162 3163 0
-3163 -83 51 0
51 -3163 3164 0
-83 -3163 3164 0
-3164 84 -52 0
-52 -3164 3165 0
84 -3164 3165 0
-3165 -57 21 0
21 -3165 3166 0
-57 -3165 3166 0
-3166 -58 22 0
22 -3166 3167 0
-58 -3166 3167 0
-3167 -73 38 0
38 -3167 3168 0
-73 -3167 3168 0
-3168 74 -37 0
-37 -3168 3169 0
74 -3168 3169 0
-3169 56 -20 0
-20 -3169 3170 0
56 -3169 3170 0
-3170 55 -19 0
-19 -3170 3171 0
55 -3170 3171 0
-3171 -91 127 0
127 -3171 3172 0
-91 -3171 3172 0
-3172 92 -128 0
-128 -3172 3173 0
92 -3172 3173 0
-3173 12 -16 0
-16 -3173 3174 0
12 -3173 3174 0
-3174 -11 15 0
15 -3174 3175 0
-11 -3174 3175 0
-3175 80 -43 0
-43 -3175 3176 0
80 -3175 3176 0
-3176 79 -44 0
-44 -3176 3177 0
79 -3176 3177 0
-3177 173 -178 0
-178 -3177 3178 0
173 -3177 3178 0
-3178 -174 177 0
177 -3178 3179 0
-174 -3178 3179 0
-3179 -75 40 0
40 -3179 3180 0
-75 -3179 3180 0
-3180 -76 39 0
39 -3180 3181 0
-76 -3180 3181 0
-3181 -77 42 0
42 -3181 3182 0
-77 -3181 3182 0
-3182 -78 41 0
41 -3182 3183 0
-78 -3182 3183 0
-3183 66 -34 0
-34 -3183 3184 0
66 -3183 3184 0
-3184 -63 27 0
27 -3184 3185 0
-63 -3184 3185 0
-3185 -64 28 0
28 -3185 3186 0
-64 -3185 3186 0
-3186 -65 33 0
33 -3186 3187 0
-65 -3186 3187 0
-3187 22 -93 0
-93 -3187 3188 0
22 -3187 3188 0
-3188 21 -94 0
-94 -3188 3189 0
21 -3188 3189 0
-3189 -85 50 0
50 -3189 3190 0
-85 -3189 3190 0
-3190 -86 49 0
49 -3190 3191 0
-86 -3190 3191 0
-3191 -119 124 0
124 -3191 3192 0
-119 -3191 3192 0
-3192 -120 123 0
123 -3192 3193 0
-120 -3192 3193 0
-3193 62 -26 0
-26 -3193 3194 0
62 -3193 3194 0
-3194 61 -25 0
-25 -3194 3195 0
61 -3194 3195 0
-3195 60 -24 0
-24 -3195 3196 0
60 -3195 3196 0
-3196 59 -23 0
-23 -3196 3197 0
59 -3196 3197 0
-3197 34 -102 0
-102 -3197 3198 0
34 -3197 3198 0
-3198 33 -101 0
-101 -3198 3199 0
33 -3198 3199 0
-3199 28 -100 0
-100 -3199 3200 0
28 -3199 3200 0
-3200 27 -99 0
-99 -3200 3201 0
27 -3200 3201 0
-3201 20 -92 0
-92 -3201 3202 0
20 -3201 3202 0
-3202 19 -91 0
-91 -3202 3203 0
19 -3202 3203 0
-3203 -99 135 0
135 -3203 3204 0
-99 -3203 3204 0
-3204 -100 136 0
136 -3204 3205 0
-100 -3204 3205 0
-3205 108 -143 0
-143 -3205 3206 0
108 -3205 3206 0
-3206 107 -144 0
-144 -3206 3207 0
107 -3206 3207 0
-3207 -103 139 0
139 -3207 3208 0
-103 -3207 3208 0
-3208 -104 140 0
140 -3208 3209 0
-104 -3208 3209 0
-3209 -105 137 0
137 -3209 3210 0
-105 -3209 3210 0
-3210 -106 138 0
138 -3210 3211 0
-106 -3210 3211 0
-3211 -98 134 0
134 -3211 3212 0
-98 -3211 3212 0
-3212 97 -133 0
-133 -3212 3213 0
97 -3212 3213 0
-3213 -89 54 0
54 -3213 3214 0
-89 -3213 3214 0
-3214 -90 53 0
53 -3214 3215 0
-90 -3214 3215 0
-3215 94 -129 0
-129 -3215 3216 0
94 -3215 3216 0
-3216 93 -130 0
-130 -3216 3217 0
93 -3216 3217 0
-3217 -15 12 0
12 -3217 3218 0
-15 -3217 3218 0
-3218 -16 11 0
11 -3218 3219 0
-16 -3218 3219 0
-3219 -29 106 0
106 -3219 3220 0
-29 -3219 3220 0
-3220 -30 105 0
105 -3220 3221 0
-30 -3220 3221 0
-3221 -31 103 0
103 -3221 3222 0
-31 -3221 3222 0
-3222 -32 104 0
104 -3222 3223 0
-32 -3222 3223 0
-3223 -35 108 0
108 -3223 3224 0
-35 -3223 3224 0
-3224 -36 107 0
107 -3224 3225 0
-36 -3224 3225 0
-3225 160 -156 0
-156 -3225 3226 0
160 -3225 3226 0
-3226 159 -155 0
-155 -3226 3227 0
159 -3226 3227 0
-3227 -45 63 0
63 -3227 3228 0
-45 -3227 3228 0
-3228 -46 64 0
64 -3228 3229 0
-46 -3228 3229 0
-3229 -102 142 0
142 -3229 3230 0
-102 -3229 3230 0
-3230 101 -141 0
-141 -3230 3231 0
101 -3230 3231 0
-3231 144 -89 0
-89 -3231 3232 0
144 -3231 3232 0
-3232 143 -90 0
-90 -3232 3233 0
143 -3232 3233 0
-3233 -131 78 0
78 -3233 3234 0
-131 -3233 3234 0
-3234 -132 77 0
77 -3234 3235 0
-132 -3234 3235 0
-3235 -67 31 0
31 -3235 3236 0
-67 -3235 3236 0
-3236 -95 131 0
131 -3236 3237 0
-95 -3236 3237 0
-3237 178 -173 0
-173 -3237 3238 0
178 -3237 3238 0
-3238 177 -174 0
-174 -3238 3239 0
177 -3238 3239 0
-3239 -96 132 0
132 -3239 3240 0
-96 -3239 3240 0
-3240 68 -32 0
-32 -3240 3241 0
68 -3240 3241 0
-3241 -123 120 0
120 -3241 3242 0
-123 -3241 3242 0
-3242 133 -79 0
-79 -3242 3243 0
133 -3242 3243 0
-3243 -134 80 0
80 -3243 3244 0
-134 -3243 3244 0
-3244 -124 119 0
119 -3244 3245 0
-124 -3244 3245 0
-3245 38 -55 0
-55 -3245 3246 0
38 -3245 3246 0
-3246 -23 95 0
95 -3246 3247 0
-23 -3246 3247 0
-3247 37 -56 0
-56 -3247 3248 0
37 -3247 3248 0
-3248 -43 61 0
61 -3248 3249 0
-43 -3248 3249 0
-3249 69 -29 0
-29 -3249 3250 0
69 -3249 3250 0
-3250 -70 30 0
30 -3250 3251 0
-70 -3250 3251 0
-3251 -24 96 0
96 -3251 3252 0
-24 -3251 3252 0
-3252 -25 98 0
98 -3252 3253 0
-25 -3252 3253 0
-3253 -81 46 0
46 -3253 3254 0
-81 -3253 3254 0
-3254 -44 62 0
62 -3254 3255 0
-44 -3254 3255 0
-3255 -26 97 0
97 -3255 3256 0
-26 -3255 3256 0
-3256 -82 45 0
45 -3256 3257 0
-82 -3256 3257 0
-3257 -87 47 0
47 -3257 3258 0
-87 -3257 3258 0
-3258 -88 48 0
48 -3258 3259 0
-88 -3258 3259 0
-3259 136 -81 0
-81 -3259 3260 0
136 -3259 3260 0
-3260 -135 82 0
3261 0
147 -159 0
-159 -3261 3262 0
147 -3261 3262 0
-3262 -148 160 0
160 -3262 3263 0
-148 -3262 3263 0
-3263 152 -150 0
-150 -3263 3264 0
152 -3263 3264 0
-3264 -146 156 0
156 -3264 3265 0
-146 -3264 3265 0
-3265 -151 149 0
149 -3265 3266 0
-151 -3265 3266 0
-3266 145 -155 0
-155 -3266 3267 0
145 -3266 3267 0
-3267 -149 151 0
151 -3267 3268 0
-149 -3267 3268 0
-3268 -1 119 0
119 -3268 3269 0
-1 -3268 3269 0
-3269 -150 152 0
152 -3269 3270 0
-150 -3269 3270 0
-3270 2 -120 0
-120 -3270 3271 0
2 -3270 3271 0
-3271 14 -125 0
-125 -3271 3272 0
14 -3271 3272 0
-3272 13 -126 0
-126 -3272 3273 0
13 -3272 3273 0
-3273 -121 72 0
72 -3273 3274 0
-121 -3273 3274 0
-3274 -122 71 0
71 -3274 3275 0
-122 -3274 3275 0
-3275 180 -27 0
-27 -3275 3276 0
180 -3275 3276 0
-3276 126 -64 0
-64 -3276 3277 0
126 -3276 3277 0
-3277 179 -28 0
-28 -3277 3278 0
179 -3277 3278 0
-3278 -17 117 0
117 -3278 3279 0
-17 -3278 3279 0
-3279 -18 118 0
118 -3279 3280 0
-18 -3279 3280 0
-3280 125 -63 0
-63 -3280 3281 0
125 -3280 3281 0
-3281 162 -154 0
-154 -3281 3282 0
162 -3281 3282 0
-3282 161 -153 0
-153 -3282 3283 0
161 -3282 3283 0
-3283 156 -145 0
-145 -3283 3284 0
156 -3283 3284 0
-3284 176 -35 0
-35 -3284 3285 0
176 -3284 3285 0
-3285 175 -36 0
-36 -3285 3286 0
175 -3285 3286 0
-3286 155 -146 0
-146 -3286 3287 0
155 -3286 3287 0
-3287 -153 148 0
148 -3287 3288 0
-153 -3287 3288 0
-3288 -154 147 0
147 -3288 3289 0
-154 -3288 3289 0
-3289 -5 115 0
115 -3289 3290 0
-5 -3289 3290 0
-3290 -6 116 0
116 -3290 3291 0
-6 -3290 3291 0
-3291 -115 59 0
59 -3291 3292 0
-115 -3291 3292 0
-3292 -116 60 0
60 -3292 3293 0
-116 -3292 3293 0
-3293 -113 62 0
62 -3293 3294 0
-113 -3293 3294 0
-3294 -114 61 0
61 -3294 3295 0
-114 -3294 3295 0
-3295 4 -124 0
-124 -3295 3296 0
4 -3295 3296 0
-3296 3 -123 0
-123 -3296 3297 0
3 -3296 3297 0
-3297 -163 30 0
30 -3297 3298 0
-163 -3297 3298 0
-3298 166 -33 0
-33 -3298 3299 0
166 -3298 3299 0
-3299 165 -34 0
-34 -3299 3300 0
165 -3299 3300 0
-3300 164 -29 0
-29 -3300 3301 0
164 -3300 3301 0
-3301 -167 26 0
26 -3301 3302 0
-167 -3301 3302 0
-3302 -109 66 0
66 -3302 3303 0
-109 -3302 3303 0
-3303 -110 65 0
65 -3303 3304 0
-110 -3303 3304 0
-3304 -168 25 0
25 -3304 3305 0
-168 -3304 3305 0
-3305 158 -162 0
-162 -3305 3306 0
158 -3305 3306 0
-3306 157 -161 0
-161 -3306 3307 0
157 -3306 3307 0
-3307 72 -81 0
-81 -3307 3308 0
72 -3307 3308 0
-3308 112 -69 0
-69 -3308 3309 0
112 -3308 3309 0
-3309 111 -70 0
-70 -3309 3310 0
111 -3309 3310 0
-3310 71 -82 0
-82 -3310 3311 0
71 -3310 3311 0
-3311 7 -113 0
-113 -3311 3312 0
7 -3311 3312 0
-3312 8 -114 0
-114 -3312 3313 0
8 -3312 3313 0
-3313 -169 23 0
23 -3313 3314 0
-169 -3313 3314 0
-3314 -83 128 0
128 -3314 3315 0
-83 -3314 3315 0
-3315 -170 24 0
24 -3315 3316 0
-170 -3315 3316 0
-3316 84 -127 0
-127 -3316 3317 0
84 -3316 3317 0
-3317 -57 87 0
87 -3317 3318 0
-57 -3317 3318 0
-3318 -58 88 0
88 -3318 3319 0
-58 -3318 3319 0
-3319 117 -58 0
-58 -3319 3320 0
117 -3319 3320 0
-3320 -73 138 0
138 -3320 3321 0
-73 -3320 3321 0
-3321 74 -137 0
-137 -3321 3322 0
74 -3321 3322 0
-3322 56 -84 0
-84 -3322 3323 0
56 -3322 3323 0
-3323 55 -83 0
-83 -3323 3324 0
55 -3323 3324 0
-3324 172 -21 0
-21 -3324 3325 0
172 -3324 3325 0
-3325 171 -22 0
-22 -3325 3326 0
171 -3325 3326 0
-3326 118 -57 0
-57 -3326 3327 0
118 -3326 3327 0
-3327 -91 48 0
48 -3327 3328 0
-91 -3327 3328 0
-3328 92 -47 0
-47 -3328 3329 0
92 -3328 3329 0
-3329 12 -109 0
-109 -3329 3330 0
12 -3329 3330 0
-3330 -11 110 0
110 -3330 3331 0
-11 -3330 3331 0
-3331 80 -131 0
-131 -3331 3332 0
80 -3331 3332 0
-3332 79 -132 0
-132 -3332 3333 0
79 -3332 3333 0
-3333 173 -19 0
-19 -3333 3334 0
173 -3333 3334 0
-3334 -174 20 0
20 -3334 3335 0
-174 -3334 3335 0
-3335 -75 141 0
141 -3335 3336 0
-75 -3335 3336 0
-3336 -76 142 0
142 -3336 3337 0
-76 -3336 3337 0
-3337 -77 134 0
134 -3337 3338 0
-77 -3337 3338 0
-3338 -78 133 0
133 -3338 3339 0
-78 -3338 3339 0
-3339 66 -74 0
-74 -3339 3340 0
66 -3339 3340 0
-3340 -63 75 0
75 -3340 3341 0
-63 -3340 3341 0
-3341 -64 76 0
76 -3341 3342 0
-64 -3341 3342 0
-3342 -65 73 0
73 -3342 3343 0
-65 -3342 3343 0
-3343 22 -105 0
-105 -3343 3344 0
22 -3343 3344 0
-3344 21 -106 0
-106 -3344 3345 0
21 -3344 3345 0
-3345 -85 144 0
144 -3345 3346 0
-85 -3345 3346 0
-3346 -86 143 0
143 -3346 3347 0
-86 -3346 3347 0
-3347 -119 55 0
55 -3347 3348 0
-119 -3347 3348 0
-3348 -120 56 0
56 -3348 3349 0
-120 -3348 3349 0
-3349 62 -77 0
-77 -3349 3350 0
62 -3349 3350 0
-3350 61 -78 0
-78 -3350 3351 0
61 -3350 3351 0
-3351 60 -80 0
-80 -3351 3352 0
60 -3351 3352 0
-3352 59 -79 0
-79 -3352 3353 0
59 -3352 3353 0
-3353 34 -104 0
-104 -3353 3354 0
34 -3353 3354 0
-3354 33 -103 0
-103 -3354 3355 0
33 -3354 3355 0
-3355 28 -94 0
-94 -3355 3356 0
28 -3355 3356 0
-3356 27 -93 0
-93 -3356 3357 0
27 -3356 3357 0
-3357 20 -102 0
-102 -3357 3358 0
20 -3357 3358 0
-3358 19 -101 0
-101 -3358 3359 0
19 -3358 3359 0
-3359 -99 39 0
39 -3359 3360 0
-99 -3359 3360 0
-3360 -100 40 0
40 -3360 3361 0
-100 -3360 3361 0
-3361 108 -46 0
-46 -3361 3362 0
108 -3361 3362 0
-3362 107 -45 0
-45 -3362 3363 0
107 -3362 3363 0
-3363 -103 54 0
54 -3363 3364 0
-103 -3363 3364 0
-3364 -104 53 0
53 -3364 3365 0
-104 -3364 3365 0
-3365 -105 49 0
49 -3365 3366 0
-105 -3365 3366 0
-3366 -106 50 0
50 -3366 3367 0
-106 -3366 3367 0
-3367 -98 42 0
42 -3367 3368 0
-98 -3367 3368 0
-3368 -9 112 0
112 -3368 3369 0
-9 -3368 3369 0
-3369 -10 111 0
111 -3369 3370 0
-10 -3369 3370 0
-3370 97 -41 0
-41 -3370 3371 0
97 -3370 3371 0
-3371 -89 135 0
135 -3371 3372 0
-89 -3371 3372 0
-3372 -90 136 0
136 -3372 3373 0
-90 -3372 3373 0
-3373 94 -51 0
-51 -3373 3374 0
94 -3373 3374 0
-3374 93 -52 0
-52 -3374 3375 0
93 -3374 3375 0
-3375 -15 122 0
122 -3375 3376 0
-15 -3375 3376 0
-3376 -16 121 0
121 -3376 3377 0
-16 -3376 3377 0
-3377 -29 92 0
92 -3377 3378 0
-29 -3377 3378 0
-3378 -30 91 0
91 -3378 3379 0
-30 -3378 3379 0
-3379 -31 108 0
108 -3379 3380 0
-31 -3379 3380 0
-3380 -32 107 0
107 -3380 3381 0
-32 -3380 3381 0
-3381 -35 99 0
99 -3381 3382 0
-35 -3381 3382 0
-3382 -36 100 0
100 -3382 3383 0
-36 -3382 3383 0
-3383 160 -157 0
-157 -3383 3384 0
160 -3383 3384 0
-3384 159 -158 0
-158 -3384 3385 0
159 -3384 3385 0
-3385 -45 4 0
4 -3385 3386 0
-45 -3385 3386 0
-3386 -46 3 0
3 -3386 3387 0
-46 -3386 3387 0
-3387 -102 37 0
37 -3387 3388 0
-102 -3387 3388 0
-3388 101 -38 0
-38 -3388 3389 0
101 -3388 3389 0
-3389 144 -171 0
-171 -3389 3390 0
144 -3389 3390 0
-3390 143 -172 0
-172 -3390 3391 0
143 -3390 3391 0
-3391 -131 170 0
170 -3391 3392 0
-131 -3391 3392 0
-3392 -132 169 0
169 -3392 3393 0
-132 -3392 3393 0
-3393 -67 89 0
89 -3393 3394 0
-67 -3393 3394 0
-3394 -95 44 0
44 -3394 3395 0
-95 -3394 3395 0
-3395 178 -31 0
-31 -3395 3396 0
178 -3395 3396 0
-3396 177 -32 0
-32 -3396 3397 0
177 -3396 3397 0
-3397 -96 43 0
43 -3397 3398 0
-96 -3397 3398 0
-3398 68 -90 0
-90 -3398 3399 0
68 -3398 3399 0
-3399 -123 67 0
67 -3399 3400 0
-123 -3399 3400 0
-3400 133 -167 0
-167 -3400 3401 0
133 -3400 3401 0
-3401 -134 168 0
168 -3401 3402 0
-134 -3401 3402 0
-3402 -124 68 0
68 -3402 3403 0
-124 -3402 3403 0
-3403 38 -12 0
-12 -3403 3404 0
38 -3403 3404 0
-3404 -23 97 0
97 -3404 3405 0
-23 -3404 3405 0
-3405 37 -11 0
-11 -3405 3406 0
37 -3405 3406 0
-3406 -43 6 0
6 -3406 3407 0
-43 -3406 3407 0
-3407 69 -85 0
-85 -3407 3408 0
69 -3407 3408 0
-3408 -70 86 0
86 -3408 3409 0
-70 -3408 3409 0
-3409 -24 98 0
98 -3409 3410 0
-24 -3409 3410 0
-3410 -25 95 0
95 -3410 3411 0
-25 -3410 3411 0
-3411 -81 129 0
129 -3411 3412 0
-81 -3411 3412 0
-3412 -44 5 0
5 -3412 3413 0
-44 -3412 3413 0
-3413 -26 96 0
96 -3413 3414 0
-26 -3413 3414 0
-3414 -82 130 0
130 -3414 3415 0
-82 -3414 3415 0
-3415 -87 139 0
139 -3415 3416 0
-87 -3415 3416 0
-3416 -88 140 0
140 -3416 3417 0
-88 -3416 3417 0
-3417 136 -166 0
-166 -3417 3418 0
136 -3417 3418 0
-3418 -135 165 0
165 -3418 3419 0
-135 -3418 3419 0
-3419 52 -13 0
-13 -3419 3420 0
52 -3419 3420 0
-3420 -127 173 0
173 -3420 3421 0
-127 -3420 3421 0
-3421 -128 174 0
174 -3421 3422 0
-128 -3421 3422 0
-3422 42 -8 0
-8 -3422 3423 0
42 -3422 3423 0
-3423 41 -7 0
-7 -3423 3424 0
41 -3423 3424 0
-3424 51 -14 0
-14 -3424 3425 0
51 -3424 3425 0
-3425 -39 15 0
15 -3425 3426 0
-39 -3425 3426 0
-3426 -40 16 0
16 -3426 3427 0
-40 -3426 3427 0
-3427 -139 179 0
179 -3427 3428 0
-139 -3427 3428 0
-3428 -140 180 0
180 -3428 3429 0
-140 -3428 3429 0
-3429 142 -175 0
-175 -3429 3430 0
142 -3429 3430 0
-3430 137 -163 0
-163 -3430 3431 0
137 -3430 3431 0
-3431 -138 164 0
3432 0
152 -160 0
-160 -3432 3433 0
152 -3432 3433 0
-3433 -151 159 0
159 -3433 3434 0
-151 -3433 3434 0
-3434 -153 152 0
152 -3434 3435 0
-153 -3434 3435 0
-3435 -154 151 0
151 -3435 3436 0
-154 -3435 3436 0
-3436 -115 123 0
123 -3436 3437 0
-115 -3436 3437 0
-3437 -116 124 0
124 -3437 3438 0
-116 -3437 3438 0
-3438 7 -16 0
-16 -3438 3439 0
7 -3438 3439 0
-3439 8 -15 0
-15 -3439 3440 0
8 -3439 3440 0
-3440 -169 177 0
177 -3440 3441 0
-169 -3440 3441 0
-3441 -170 178 0
178 -3441 3442 0
-170 -3441 3442 0
-3442 117 -116 0
-116 -3442 3443 0
117 -3442 3443 0
-3443 172 -169 0
-169 -3443 3444 0
172 -3443 3444 0
-3444 171 -170 0
-170 -3444 3445 0
171 -3444 3445 0
-3445 118 -115 0
-115 -3445 3446 0
118 -3445 3446 0
-3446 -91 128 0
128 -3446 3447 0
-91 -3446 3447 0
-3447 92 -127 0
-127 -3447 3448 0
92 -3447 3448 0
-3448 80 -88 0
-88 -3448 3449 0
80 -3448 3449 0
-3449 79 -87 0
-87 -3449 3450 0
79 -3449 3450 0
-3450 -63 62 0
62 -3450 3451 0
-63 -3450 3451 0
-3451 -64 61 0
61 -3451 3452 0
-64 -3451 3452 0
-3452 22 -40 0
-40 -3452 3453 0
22 -3452 3453 0
-3453 21 -39 0
-39 -3453 3454 0
21 -3453 3454 0
-3454 62 -70 0
-70 -3454 3455 0
62 -3454 3455 0
-3455 61 -69 0
-69 -3455 3456 0
61 -3455 3456 0
-3456 34 -46 0
-46 -3456 3457 0
34 -3456 3457 0
-3457 33 -45 0
-45 -3457 3458 0
33 -3457 3458 0
-3458 28 -44 0
-44 -3458 3459 0
28 -3458 3459 0
-3459 27 -43 0
-43 -3459 3460 0
27 -3459 3460 0
-3460 20 -38 0
-38 -3460 3461 0
20 -3460 3461 0
-3461 19 -37 0
-37 -3461 3462 0
19 -3461 3462 0
-3462 -99 134 0
134 -3462 3463 0
-99 -3462 3463 0
-3463 -100 133 0
133 -3463 3464 0
-100 -3463 3464 0
-3464 108 -143 0
-143 -3464 3465 0
108 -3464 3465 0
-3465 107 -144 0
-144 -3465 3466 0
107 -3465 3466 0
-3466 -103 140 0
140 -3466 3467 0
-103 -3466 3467 0
-3467 -104 139 0
139 -3467 3468 0
-104 -3467 3468 0
-3468 -105 136 0
136 -3468 3469 0
-105 -3468 3469 0
-3469 -106 135 0
135 -3469 3470 0
-106 -3469 3470 0
-3470 -98 141 0
141 -3470 3471 0
-98 -3470 3471 0
-3471 -9 7 0
7 -3471 3472 0
-9 -3471 3472 0
-3472 -10 8 0
8 -3472 3473 0
-10 -3472 3473 0
-3473 97 -142 0
-142 -3473 3474 0
97 -3473 3474 0
-3474 94 -129 0
-129 -3474 3475 0
94 -3474 3475 0
-3475 93 -130 0
-130 -3475 3476 0
93 -3475 3476 0
-3476 -15 10 0
10 -3476 3477 0
-15 -3476 3477 0
-3477 -16 9 0
9 -3477 3478 0
-16 -3477 3478 0
-3478 -29 47 0
47 -3478 3479 0
-29 -3478 3479 0
-3479 -30 48 0
48 -3479 3480 0
-30 -3479 3480 0
-3480 -31 49 0
49 -3480 3481 0
-31 -3480 3481 0
-3481 -32 50 0
50 -3481 3482 0
-32 -3481 3482 0
-3482 -35 53 0
53 -3482 3483 0
-35 -3482 3483 0
-3483 -36 54 0
54 -3483 3484 0
-36 -3483 3484 0
-3484 160 -153 0
-153 -3484 3485 0
160 -3484 3485 0
-3485 159 -154 0
-154 -3485 3486 0
159 -3485 3486 0
-3486 -45 26 0
26 -3486 3487 0
-45 -3486 3487 0
-3487 -46 25 0
25 -3487 3488 0
-46 -3487 3488 0
-3488 -102 137 0
137 -3488 3489 0
-102 -3488 3489 0
-3489 101 -138 0
-138 -3489 3490 0
101 -3489 3490 0
-3490 144 -107 0
-107 -3490 3491 0
144 -3490 3491 0
-3491 143 -108 0
-108 -3491 3492 0
143 -3491 3492 0
-3492 -131 96 0
96 -3492 3493 0
-131 -3492 3493 0
-3493 -132 95 0
95 -3493 3494 0
-132 -3493 3494 0
-3494 -95 132 0
132 -3494 3495 0
-95 -3494 3495 0
-3495 178 -171 0
-171 -3495 3496 0
178 -3495 3496 0
-3496 177 -172 0
-172 -3496 3497 0
177 -3496 3497 0
-3497 -96 131 0
131 -3497 3498 0
-96 -3497 3498 0
-3498 -123 118 0
118 -3498 3499 0
-123 -3498 3499 0
-3499 133 -105 0
-105 -3499 3500 0
133 -3499 3500 0
-3500 -134 106 0
106 -3500 3501 0
-134 -3500 3501 0
-3501 -124 117 0
117 -3501 3502 0
-124 -3501 3502 0
-3502 38 -20 0
-20 -3502 3503 0
38 -3502 3503 0
-3503 -23 41 0
41 -3503 3504 0
-23 -3503 3504 0
-3504 37 -19 0
-19 -3504 3505 0
37 -3504 3505 0
-3505 -43 34 0
34 -3505 3506 0
-43 -3505 3506 0
-3506 69 -64 0
3507 0
147 -169 0
-169 -3507 3508 0
147 -3507 3508 0
-3508 -148 170 0
170 -3508 3509 0
-148 -3508 3509 0
-3509 152 -163 0
-163 -3509 3510 0
152 -3509 3510 0
-3510 -146 177 0
177 -3510 3511 0
-146 -3510 3511 0
-3511 -151 164 0
164 -3511 3512 0
-151 -3511 3512 0
-3512 145 -178 0
-178 -3512 3513 0
145 -3512 3513 0
-3513 -149 180 0
180 -3513 3514 0
-149 -3513 3514 0
-3514 -1 34 0
34 -3514 3515 0
-1 -3514 3515 0
-3515 -150 179 0
179 -3515 3516 0
-150 -3515 3516 0
-3516 2 -33 0
-33 -3516 3517 0
2 -3516 3517 0
-3517 14 -24 0
-24 -3517 3518 0
14 -3517 3518 0
-3518 13 -23 0
-23 -3518 3519 0
13 -3518 3519 0
-3519 -121 114 0
114 -3519 3520 0
-121 -3519 3520 0
-3520 -122 113 0
113 -3520 3521 0
-122 -3520 3521 0
-3521 180 -39 0
-39 -3521 3522 0
180 -3521 3522 0
-3522 126 -111 0
-111 -3522 3523 0
126 -3522 3523 0
-3523 179 -40 0
-40 -3523 3524 0
179 -3523 3524 0
-3524 -17 22 0
22 -3524 3525 0
-17 -3524 3525 0
-3525 -18 21 0
21 -3525 3526 0
-18 -3525 3526 0
-3526 125 -112 0
-112 -3526 3527 0
125 -3526 3527 0
-3527 162 -165 0
-165 -3527 3528 0
162 -3527 3528 0
-3528 161 -166 0
-166 -3528 3529 0
161 -3528 3529 0
-3529 156 -176 0
-176 -3529 3530 0
156 -3529 3530 0
-3530 176 -42 0
-42 -3530 3531 0
176 -3530 3531 0
-3531 175 -41 0
-41 -3531 3532 0
175 -3531 3532 0
-3532 155 -175 0
-175 -3532 3533 0
155 -3532 3533 0
-3533 -153 173 0
173 -3533 3534 0
-153 -3533 3534 0
-3534 -154 174 0
174 -3534 3535 0
-154 -3534 3535 0
-3535 -5 35 0
35 -3535 3536 0
-5 -3535 3536 0
-3536 -6 36 0
36 -3536 3537 0
-6 -3536 3537 0
-3537 -115 110 0
110 -3537 3538 0
-115 -3537 3538 0
-3538 -116 109 0
109 -3538 3539 0
-116 -3538 3539 0
-3539 -113 125 0
125 -3539 3540 0
-113 -3539 3540 0
-3540 -114 126 0
126 -3540 3541 0
-114 -3540 3541 0
-3541 4 -25 0
-25 -3541 3542 0
4 -3541 3542 0
-3542 3 -26 0
-26 -3542 3543 0
3 -3542 3543 0
-3543 -163 51 0
51 -3543 3544 0
-163 -3543 3544 0
-3544 166 -43 0
-43 -3544 3545 0
166 -3544 3545 0
-3545 165 -44 0
-44 -3545 3546 0
165 -3545 3546 0
-3546 164 -52 0
-52 -3546 3547 0
164 -3546 3547 0
-3547 -167 53 0
53 -3547 3548 0
-167 -3547 3548 0
-3548 -109 124 0
124 -3548 3549 0
-109 -3548 3549 0
-3549 -110 123 0
123 -3549 3550 0
-110 -3549 3550 0
-3550 -168 54 0
54 -3550 3551 0
-168 -3550 3551 0
-3551 158 -168 0
-168 -3551 3552 0
158 -3551 3552 0
-3552 157 -167 0
-167 -3552 3553 0
157 -3552 3553 0
-3553 72 -75 0
-75 -3553 3554 0
72 -3553 3554 0
-3554 112 -116 0
-116 -3554 3555 0
112 -3554 3555 0
-3555 111 -115 0
-115 -3555 3556 0
111 -3555 3556 0
-3556 71 -76 0
-76 -3556 3557 0
71 -3556 3557 0
-3557 7 -20 0
-20 -3557 3558 0
7 -3557 3558 0
-3558 8 -19 0
-19 -3558 3559 0
8 -3558 3559 0
-3559 -169 37 0
37 -3559 3560 0
-169 -3559 3560 0
-3560 -83 157 0
157 -3560 3561 0
-83 -3560 3561 0
-3561 -170 38 0
38 -3561 3562 0
-170 -3561 3562 0
-3562 84 -158 0
-158 -3562 3563 0
84 -3562 3563 0
-3563 -57 79 0
79 -3563 3564 0
-57 -3563 3564 0
-3564 -58 80 0
80 -3564 3565 0
-58 -3564 3565 0
-3565 117 -119 0
-119 -3565 3566 0
117 -3565 3566 0
-3566 -73 159 0
159 -3566 3567 0
-73 -3566 3567 0
-3567 74 -160 0
-160 -3567 3568 0
74 -3567 3568 0
-3568 56 -87 0
-87 -3568 3569 0
56 -3568 3569 0
-3569 55 -88 0
-88 -3569 3570 0
55 -3569 3570 0
-3570 172 -47 0
-47 -3570 3571 0
172 -3570 3571 0
-3571 171 -48 0
-48 -3571 3572 0
171 -3571 3572 0
-3572 118 -120 0
-120 -3572 3573 0
118 -3572 3573 0
-3573 -91 15 0
15 -3573 3574 0
-91 -3573 3574 0
-3574 92 -16 0
-16 -3574 3575 0
92 -3574 3575 0
-3575 12 -31 0
-31 -3575 3576 0
12 -3575 3576 0
-3576 -11 32 0
32 -3576 3577 0
-11 -3576 3577 0
-3577 80 -145 0
-145 -3577 3578 0
80 -3577 3578 0
-3578 79 -146 0
-146 -3578 3579 0
79 -3578 3579 0
-3579 173 -49 0
-49 -3579 3580 0
173 -3579 3580 0
-3580 -174 50 0
50 -3580 3581 0
-174 -3580 3581 0
-3581 -75 152 0
152 -3581 3582 0
-75 -3581 3582 0
-3582 -76 151 0
151 -3582 3583 0
-76 -3582 3583 0
-3583 -77 162 0
162 -3583 3584 0
-77 -3583 3584 0
-3584 -78 161 0
161 -3584 3585 0
-78 -3584 3585 0
-3585 66 -86 0
-86 -3585 3586 0
66 -3585 3586 0
-3586 -63 84 0
84 -3586 3587 0
-63 -3586 3587 0
-3587 -64 83 0
83 -3587 3588 0
-64 -3587 3588 0
-3588 -65 85 0
85 -3588 3589 0
-65 -3588 3589 0
-3589 22 -133 0
-133 -3589 3590 0
22 -3589 3590 0
-3590 21 -134 0
-134 -3590 3591 0
21 -3590 3591 0
-3591 -85 149 0
149 -3591 3592 0
-85 -3591 3592 0
-3592 -86 150 0
150 -3592 3593 0
-86 -3592 3593 0
-3593 -119 121 0
121 -3593 3594 0
-119 -3593 3594 0
-3594 -120 122 0
122 -3594 3595 0
-120 -3594 3595 0
-3595 62 -73 0
-73 -3595 3596 0
62 -3595 3596 0
-3596 61 -74 0
-74 -3596 3597 0
61 -3596 3597 0
-3597 60 -89 0
-89 -3597 3598 0
60 -3597 3598 0
-3598 59 -90 0
-90 -3598 3599 0
59 -3598 3599 0
-3599 34 -135 0
-135 -3599 3600 0
34 -3599 3600 0
-3600 33 -136 0
-136 -3600 3601 0
33 -3600 3601 0
-3601 28 -138 0
-138 -3601 3602 0
28 -3601 3602 0
-3602 27 -137 0
-137 -3602 3603 0
27 -3602 3603 0
-3603 20 -142 0
-142 -3603 3604 0
20 -3603 3604 0
-3604 19 -141 0
-141 -3604 3605 0
19 -3604 3605 0
-3605 -99 12 0
12 -3605 3606 0
-99 -3605 3606 0
-3606 -100 11 0
11 -3606 3607 0
-100 -3606 3607 0
-3607 108 -3 0
-3 -3607 3608 0
108 -3607 3608 0
-3608 107 -4 0
-4 -3608 3609 0
107 -3608 3609 0
-3609 -103 6 0
6 -3609 3610 0
-103 -3609 3610 0
-3610 -104 5 0
5 -3610 3611 0
-104 -3610 3611 0
-3611 -105 10 0
10 -3611 3612 0
-105 -3611 3612 0
-3612 -106 9 0
9 -3612 3613 0
-106 -3612 3613 0
-3613 -98 2 0
2 -3613 3614 0
-98 -3613 3614 0
-3614 -9 29 0
29 -3614 3615 0
-9 -3614 3615 0
-3615 -10 30 0
30 -3615 3616 0
-10 -3615 3616 0
-3616 97 -1 0
-1 -3616 3617 0
97 -3616 3617 0
-3617 -89 147 0
147 -3617 3618 0
-89 -3617 3618 0
-3618 -90 148 0
148 -3618 3619 0
-90 -3618 3619 0
-3619 94 -8 0
-8 -3619 3620 0
94 -3619 3620 0
-3620 93 -7 0
-7 -3620 3621 0
93 -3620 3621 0
-3621 -15 27 0
27 -3621 3622 0
-15 -3621 3622 0
-3622 -16 28 0
28 -3622 3623 0
-16 -3622 3623 0
-3623 -29 139 0
139 -3623 3624 0
-29 -3623 3624 0
-3624 -30 140 0
140 -3624 3625 0
-30 -3624 3625 0
-3625 -31 131 0
131 -3625 3626 0
-31 -3625 3626 0
-3626 -32 132 0
132 -3626 3627 0
-32 -3626 3627 0
-3627 -35 129 0
129 -3627 3628 0
-35 -3627 3628 0
-3628 -36 130 0
130 -3628 3629 0
-36 -3628 3629 0
-3629 160 -171 0
-171 -3629 3630 0
160 -3629 3630 0
-3630 159 -172 0
-172 -3630 3631 0
159 -3630 3631 0
-3631 -45 101 0
101 -3631 3632 0
-45 -3631 3632 0
-3632 -46 102 0
102 -3632 3633 0
-46 -3632 3633 0
-3633 -102 14 0
14 -3633 3634 0
-102 -3633 3634 0
-3634 101 -13 0
-13 -3634 3635 0
101 -3634 3635 0
-3635 144 -58 0
-58 -3635 3636 0
144 -3635 3636 0
-3636 143 -57 0
-57 -3636 3637 0
143 -3636 3637 0
-3637 -131 72 0
72 -3637 3638 0
-131 -3637 3638 0
-3638 -132 71 0
71 -3638 3639 0
-132 -3638 3639 0
-3639 -67 77 0
77 -3639 3640 0
-67 -3639 3640 0
-3640 -95 18 0
18 -3640 3641 0
-95 -3640 3641 0
-3641 178 -45 0
-45 -3641 3642 0
178 -3641 3642 0
-3642 177 -46 0
-46 -3642 3643 0
177 -3642 3643 0
-3643 -96 17 0
17 -3643 3644 0
-96 -3643 3644 0
-3644 68 -78 0
-78 -3644 3645 0
68 -3644 3645 0
-3645 -123 117 0
117 -3645 3646 0
-123 -3645 3646 0
-3646 133 -56 0
-56 -3646 3647 0
133 -3646 3647 0
-3647 -134 55 0
55 -3647 3648 0
-134 -3647 3648 0
-3648 -124 118 0
118 -3648 3649 0
-124 -3648 3649 0
-3649 38 -105 0
-105 -3649 3650 0
38 -3649 3650 0
-3650 -23 143 0
143 -3650 3651 0
-23 -3650 3651 0
-3651 37 -106 0
-106 -3651 3652 0
37 -3651 3652 0
-3652 -43 92 0
92 -3652 3653 0
-43 -3652 3653 0
-3653 69 -82 0
-82 -3653 3654 0
69 -3653 3654 0
-3654 -70 81 0
81 -3654 3655 0
-70 -3654 3655 0
-3655 -24 144 0
144 -3655 3656 0
-24 -3655 3656 0
-3656 -25 127 0
127 -3656 3657 0
-25 -3656 3657 0
-3657 -81 156 0
156 -3657 3658 0
-81 -3657 3658 0
-3658 -44 91 0
91 -3658 3659 0
-44 -3658 3659 0
-3659 -26 128 0
128 -3659 3660 0
-26 -3659 3660 0
-3660 -82 155 0
155 -3660 3661 0
-82 -3660 3661 0
-3661 -87 154 0
154 -3661 3662 0
-87 -3661 3662 0
-3662 -88 153 0
153 -3662 3663 0
-88 -3662 3663 0
-3663 136 -66 0
-66 -3663 3664 0
136 -3663 3664 0
-3664 -135 65 0
65 -3664 3665 0
-135 -3664 3665 0
-3665 52 -99 0
-99 -3665 3666 0
52 -3665 3666 0
-3666 -127 70 0
70 -3666 3667 0
-127 -3666 3667 0
-3667 -128 69 0
69 -3667 3668 0
-128 -3667 3668 0
-3668 42 -108 0
-108 -3668 3669 0
42 -3668 3669 0
-3669 41 -107 0
-107 -3669 3670 0
41 -3669 3670 0
-3670 51 -100 0
-100 -3670 3671 0
51 -3670 3671 0
-3671 -39 98 0
98 -3671 3672 0
-39 -3671 3672 0
-3672 -40 97 0
3673 0
147 -169 0
-169 -3673 3674 0
147 -3673 3674 0
-3674 -148 170 0
170 -3674 3675 0
-148 -3674 3675 0
-3675 152 -163 0
-163 -3675 3676 0
152 -3675 3676 0
-3676 -146 177 0
177 -3676 3677 0
-146 -3676 3677 0
-3677 -151 164 0
164 -3677 3678 0
-151 -3677 3678 0
-3678 145 -178 0
-178 -3678 3679 0
145 -3678 3679 0
-3679 -149 180 0
180 -3679 3680 0
-149 -3679 3680 0
-3680 -1 34 0
34 -3680 3681 0
-1 -3680 3681 0
-3681 -150 179 0
179 -3681 3682 0
-150 -3681 3682 0
-3682 2 -33 0
-33 -3682 3683 0
2 -3682 3683 0
-3683 14 -24 0
-24 -3683 3684 0
14 -3683 3684 0
-3684 13 -23 0
-23 -3684 3685 0
13 -3684 3685 0
-3685 -121 114 0
114 -3685 3686 0
-121 -3685 3686 0
-3686 -122 113 0
113 -3686 3687 0
-122 -3686 3687 0
-3687 180 -39 0
-39 -3687 3688 0
180 -3687 3688 0
-3688 126 -111 0
-111 -3688 3689 0
126 -3688 3689 0
-3689 179 -40 0
-40 -3689 3690 0
179 -3689 3690 0
-3690 -17 22 0
22 -3690 3691 0
-17 -3690 3691 0
-3691 -18 21 0
21 -3691 3692 0
-18 -3691 3692 0
-3692 125 -112 0
-112 -3692 3693 0
125 -3692 3693 0
-3693 162 -165 0
-165 -3693 3694 0
162 -3693 3694 0
-3694 161 -166 0
-166 -3694 3695 0
161 -3694 3695 0
-3695 156 -176 0
-176 -3695 3696 0
156 -3695 3696 0
-3696 176 -42 0
-42 -3696 3697 0
176 -3696 3697 0
-3697 175 -41 0
-41 -3697 3698 0
175 -3697 3698 0
-3698 155 -175 0
-175 -3698 3699 0
155 -3698 3699 0
-3699 -153 173 0
173 -3699 3700 0
-153 -3699 3700 0
-3700 -154 174 0
174 -3700 3701 0
-154 -3700 3701 0
-3701 -5 35 0
35 -3701 3702 0
-5 -3701 3702 0
-3702 -6 36 0
36 -3702 3703 0
-6 -3702 3703 0
-3703 -115 110 0
110 -3703 3704 0
-115 -3703 3704 0
-3704 -116 109 0
109 -3704 3705 0
-116 -3704 3705 0
-3705 -113 125 0
125 -3705 3706 0
-113 -3705 3706 0
-3706 -114 126 0
126 -3706 3707 0
-114 -3706 3707 0
-3707 4 -25 0
-25 -3707 3708 0
4 -3707 3708 0
-3708 3 -26 0
-26 -3708 3709 0
3 -3708 3709 0
-3709 -163 51 0
51 -3709 3710 0
-163 -3709 3710 0
-3710 166 -43 0
-43 -3710 3711 0
166 -3710 3711 0
-3711 165 -44 0
-44 -3711 3712 0
165 -3711 3712 0
-3712 164 -52 0
-52 -3712 3713 0
164 -3712 3713 0
-3713 -167 53 0
53 -3713 3714 0
-167 -3713 3714 0
-3714 -109 124 0
124 -3714 3715 0
-109 -3714 3715 0
-3715 -110 123 0
123 -3715 3716 0
-110 -3715 3716 0
-3716 -168 54 0
54 -3716 3717 0
-168 -3716 3717 0
-3717 158 -168 0
-168 -3717 3718 0
158 -3717 3718 0
-3718 157 -167 0
-167 -3718 3719 0
157 -3718 3719 0
-3719 72 -75 0
-75 -3719 3720 0
72 -3719 3720 0
-3720 112 -116 0
-116 -3720 3721 0
112 -3720 3721 0
-3721 111 -115 0
-115 -3721 3722 0
111 -3721 3722 0
-3722 71 -76 0
-76 -3722 3723 0
71 -3722 3723 0
-3723 7 -20 0
-20 -3723 3724 0
7 -3723 3724 0
-3724 8 -19 0
-19 -3724 3725 0
8 -3724 3725 0
-3725 -169 37 0
37 -3725 3726 0
-169 -3725 3726 0
-3726 -83 157 0
157 -3726 3727 0
-83 -3726 3727 0
-3727 -170 38 0
38 -3727 3728 0
-170 -3727 3728 0
-3728 84 -158 0
-158 -3728 3729 0
84 -3728 3729 0
-3729 -57 79 0
79 -3729 3730 0
-57 -3729 3730 0
-3730 -58 80 0
80 -3730 3731 0
-58 -3730 3731 0
-3731 117 -119 0
-119 -3731 3732 0
117 -3731 3732 0
-3732 -73 159 0
159 -3732 3733 0
-73 -3732 3733 0
-3733 74 -160 0
-160 -3733 3734 0
74 -3733 3734 0
-3734 56 -87 0
-87 -3734 3735 0
56 -3734 3735 0
-3735 55 -88 0
-88 -3735 3736 0
55 -3735 3736 0
-3736 172 -47 0
-47 -3736 3737 0
172 -3736 3737 0
-3737 171 -48 0
-48 -3737 3738 0
171 -3737 3738 0
-3738 118 -120 0
-120 -3738 3739 0
118 -3738 3739 0
-3739 -91 15 0
15 -3739 3740 0
-91 -3739 3740 0
-3740 92 -16 0
-16 -3740 3741 0
92 -3740 3741 0
-3741 12 -31 0
-31 -3741 3742 0
12 -3741 3742 0
-3742 -11 32 0
32 -3742 3743 0
-11 -3742 3743 0
-3743 80 -145 0
-145 -3743 3744 0
80 -3743 3744 0
-3744 79 -146 0
-146 -3744 3745 0
79 -3744 3745 0
-3745 173 -49 0
-49 -3745 3746 0
173 -3745 3746 0
-3746 -174 50 0
50 -3746 3747 0
-174 -3746 3747 0
-3747 -75 152 0
152 -3747 3748 0
-75 -3747 3748 0
-3748 -76 151 0
151 -3748 3749 0
-76 -3748 3749 0
-3749 -77 162 0
162 -3749 3750 0
-77 -3749 3750 0
-3750 -78 161 0
161 -3750 3751 0
-78 -3750 3751 0
-3751 66 -86 0
-86 -3751 3752 0
66 -3751 3752 0
-3752 -63 84 0
84 -3752 3753 0
-63 -3752 3753 0
-3753 -64 83 0
83 -3753 3754 0
-64 -3753 3754 0
-3754 -65 85 0
85 -3754 3755 0
-65 -3754 3755 0
-3755 22 -133 0
-133 -3755 3756 0
22 -3755 3756 0
-3756 21 -134 0
-134 -3756 3757 0
21 -3756 3757 0
-3757 -85 149 0
149 -3757 3758 0
-85 -3757 3758 0
-3758 -86 150 0
150 -3758 3759 0
-86 -3758 3759 0
-3759 -119 121 0
121 -3759 3760 0
-119 -3759 3760 0
-3760 -120 122 0
122 -3760 3761 0
-120 -3760 3761 0
-3761 62 -73 0
-73 -3761 3762 0
62 -3761 3762 0
-3762 61 -74 0
-74 -3762 3763 0
61 -3762 3763 0
-3763 60 -89 0
-89 -3763 3764 0
60 -3763 3764 0
-3764 59 -90 0
-90 -3764 3765 0
59 -3764 3765 0
-3765 34 -135 0
-135 -3765 3766 0
34 -3765 3766 0
-3766 33 -136 0
-136 -3766 3767 0
33 -3766 3767 0
-3767 28 -138 0
-138 -3767 3768 0
28 -3767 3768 0
-3768 27 -137 0
-137 -3768 3769 0
27 -3768 3769 0
-3769 20 -142 0
-142 -3769 3770 0
20 -3769 3770 0
-3770 19 -141 0
-141 -3770 3771 0
19 -3770 3771 0
-3771 -99 12 0
12 -3771 3772 0
-99 -3771 3772 0
-3772 -100 11 0
11 -3772 3773 0
-100 -3772 3773 0
-3773 108 -3 0
-3 -3773 3774 0
108 -3773 3774 0
-3774 107 -4 0
-4 -3774 3775 0
107 -3774 3775 0
-3775 -103 6 0
6 -3775 3776 0
-103 -3775 3776 0
-3776 -104 5 0
5 -3776 3777 0
-104 -3776 3777 0
-3777 -105 10 0
10 -3777 3778 0
-105 -3777 3778 0
-3778 -106 9 0
9 -3778 3779 0
-106 -3778 3779 0
-3779 -98 2 0
2 -3779 3780 0
-98 -3779 3780 0
-3780 -9 29 0
29 -3780 3781 0
-9 -3780 3781 0
-3781 -10 30 0
30 -3781 3782 0
-10 -3781 3782 0
-3782 97 -1 0
-1 -3782 3783 0
97 -3782 3783 0
-3783 -89 147 0
147 -3783 3784 0
-89 -3783 3784 0
-3784 -90 148 0
148 -3784 3785 0
-90 -3784 3785 0
-3785 94 -8 0
-8 -3785 3786 0
94 -3785 3786 0
-3786 93 -7 0
-7 -3786 3787 0
93 -3786 3787 0
-3787 -15 27 0
27 -3787 3788 0
-15 -3787 3788 0
-3788 -16 28 0
28 -3788 3789 0
-16 -3788 3789 0
-3789 -29 140 0
140 -3789 3790 0
-29 -3789 3790 0
-3790 -30 139 0
139 -3790 3791 0
-30 -3790 3791 0
-3791 -31 131 0
131 -3791 3792 0
-31 -3791 3792 0
-3792 -32 132 0
132 -3792 3793 0
-32 -3792 3793 0
-3793 -35 129 0
129 -3793 3794 0
-35 -3793 3794 0
-3794 -36 130 0
130 -3794 3795 0
-36 -3794 3795 0
-3795 160 -171 0
-171 -3795 3796 0
160 -3795 3796 0
-3796 159 -172 0
-172 -3796 3797 0
159 -3796 3797 0
-3797 -45 101 0
101 -3797 3798 0
-45 -3797 3798 0
-3798 -46 102 0
102 -3798 3799 0
-46 -3798 3799 0
-3799 -102 14 0
14 -3799 3800 0
-102 -3799 3800 0
-3800 101 -13 0
-13 -3800 3801 0
101 -3800 3801 0
-3801 144 -58 0
-58 -3801 3802 0
144 -3801 3802 0
-3802 143 -57 0
-57 -3802 3803 0
143 -3802 3803 0
-3803 -131 72 0
72 -3803 3804 0
-131 -3803 3804 0
-3804 -132 71 0
71 -3804 3805 0
-132 -3804 3805 0
-3805 -67 77 0
77 -3805 3806 0
-67 -3805 3806 0
-3806 -95 18 0
18 -3806 3807 0
-95 -3806 3807 0
-3807 178 -45 0
-45 -3807 3808 0
178 -3807 3808 0
-3808 177 -46 0
-46 -3808 3809 0
177 -3808 3809 0
-3809 -96 17 0
17 -3809 3810 0
-96 -3809 3810 0
-3810 68 -78 0
-78 -3810 3811 0
68 -3810 3811 0
-3811 -123 117 0
117 -3811 3812 0
-123 -3811 3812 0
-3812 133 -56 0
-56 -3812 3813 0
133 -3812 3813 0
-3813 -134 55 0
55 -3813 3814 0
-134 -3813 3814 0
-3814 -124 118 0
118 -3814 3815 0
-124 -3814 3815 0
-3815 38 -105 0
-105 -3815 3816 0
38 -3815 3816 0
-3816 -23 143 0
143 -3816 3817 0
-23 -3816 3817 0
-3817 37 -106 0
-106 -3817 3818 0
37 -3817 3818 0
-3818 -43 92 0
92 -3818 3819 0
-43 -3818 3819 0
-3819 69 -82 0
-82 -3819 3820 0
69 -3819 3820 0
-3820 -70 81 0
81 -3820 3821 0
-70 -3820 3821 0
-3821 -24 144 0
144 -3821 3822 0
-24 -3821 3822 0
-3822 -25 128 0
128 -3822 3823 0
-25 -3822 3823 0
-3823 -81 156 0
156 -3823 3824 0
-81 -3823 3824 0
-3824 -44 91 0
91 -3824 3825 0
-44 -3824 3825 0
-3825 -26 127 0
127 -3825 3826 0
-26 -3825 3826 0
-3826 -82 155 0
155 -3826 3827 0
-82 -3826 3827 0
-3827 -87 154 0
154 -3827 3828 0
-87 -3827 3828 0
-3828 -88 153 0
153 -3828 3829 0
-88 -3828 3829 0
-3829 136 -66 0
-66 -3829 3830 0
136 -3829 3830 0
-3830 -135 65 0
65 -3830 3831 0
-135 -3830 3831 0
-3831 52 -99 0
-99 -3831 3832 0
52 -3831 3832 0
-3832 -127 70 0
70 -3832 3833 0
-127 -3832 3833 0
-3833 -128 69 0
69 -3833 3834 0
-128 -3833 3834 0
-3834 42 -108 0
-108 -3834 3835 0
42 -3834 3835 0
-3835 41 -107 0
-107 -3835 3836 0
41 -3835 3836 0
-3836 51 -100 0
-100 -3836 3837 0
51 -3836 3837 0
-3837 -39 98 0
98 -3837 3838 0
-39 -3837 3838 0
-3838 -40 97 0
97 -3838 3839 0
-40 -3838 3839 0
-3839 -139 60 0
3840 0
-1 56 0
56 -3840 3841 0
-1 -3840 3841 0
-3841 2 -55 0
-55 -3841 3842 0
2 -3841 3842 0
-3842 14 -68 0
-68 -3842 3843 0
14 -3842 3843 0
-3843 13 -67 0
-67 -3843 3844 0
13 -3843 3844 0
-3844 -121 86 0
86 -3844 3845 0
-121 -3844 3845 0
-3845 -122 85 0
85 -3845 3846 0
-122 -3845 3846 0
-3846 180 -108 0
-108 -3846 3847 0
180 -3846 3847 0
-3847 126 -90 0
-90 -3847 3848 0
126 -3847 3848 0
-3848 179 -107 0
-107 -3848 3849 0
179 -3848 3849 0
-3849 -17 71 0
71 -3849 3850 0
-17 -3849 3850 0
-3850 -18 72 0
72 -3850 3851 0
-18 -3850 3851 0
-3851 125 -89 0
-89 -3851 3852 0
125 -3851 3852 0
-3852 176 -103 0
-103 -3852 3853 0
176 -3852 3853 0
-3853 175 -104 0
-104 -3853 3854 0
175 -3853 3854 0
-3854 -5 60 0
60 -3854 3855 0
-5 -3854 3855 0
-3855 -6 59 0
59 -3855 3856 0
-6 -3855 3856 0
-3856 -115 80 0
80 -3856 3857 0
-115 -3856 3857 0
-3857 -116 79 0
79 -3857 3858 0
-116 -3857 3858 0
-3858 -113 78 0
78 -3858 3859 0
-113 -3858 3859 0
-3859 -114 77 0
77 -3859 3860 0
-114 -3859 3860 0
-3860 4 -58 0
-58 -3860 3861 0
4 -3860 3861 0
-3861 3 -57 0
-57 -3861 3862 0
3 -3861 3862 0
-3862 -163 92 0
92 -3862 3863 0
-163 -3862 3863 0
-3863 166 -93 0
-93 -3863 3864 0
166 -3863 3864 0
-3864 165 -94 0
-94 -3864 3865 0
165 -3864 3865 0
-3865 164 -91 0
-91 -3865 3866 0
164 -3865 3866 0
-3866 -167 95 0
95 -3866 3867 0
-167 -3866 3867 0
-3867 -109 73 0
73 -3867 3868 0
-109 -3867 3868 0
-3868 -110 74 0
74 -3868 3869 0
-110 -3868 3869 0
-3869 -168 96 0
96 -3869 3870 0
-168 -3869 3870 0
-3870 72 -143 0
-143 -3870 3871 0
72 -3870 3871 0
-3871 112 -75 0
-75 -3871 3872 0
112 -3871 3872 0
-3872 111 -76 0
-76 -3872 3873 0
111 -3872 3873 0
-3873 71 -144 0
-144 -3873 3874 0
71 -3873 3874 0
-3874 7 -61 0
-61 -3874 3875 0
7 -3874 3875 0
-3875 8 -62 0
-62 -3875 3876 0
8 -3875 3876 0
-3876 -169 98 0
98 -3876 3877 0
-169 -3876 3877 0
-3877 -83 173 0
173 -3877 3878 0
-83 -3877 3878 0
-3878 -170 97 0
97 -3878 3879 0
-170 -3878 3879 0
-3879 84 -174 0
-174 -3879 3880 0
84 -3879 3880 0
-3880 -57 130 0
130 -3880 3881 0
-57 -3880 3881 0
-3881 -58 129 0
129 -3881 3882 0
-58 -3881 3882 0
-3882 117 -81 0
-81 -3882 3883 0
117 -3882 3883 0
-3883 -73 163 0
163 -3883 3884 0
-73 -3883 3884 0
-3884 74 -164 0
-164 -3884 3885 0
74 -3884 3885 0
-3885 56 -128 0
-128 -3885 3886 0
56 -3885 3886 0
-3886 55 -127 0
-127 -3886 3887 0
55 -3886 3887 0
-3887 172 -99 0
-99 -3887 3888 0
172 -3887 3888 0
-3888 171 -100 0
-100 -3888 3889 0
171 -3888 3889 0
-3889 118 -82 0
-82 -3889 3890 0
118 -3889 3890 0
-3890 -91 2 0
2 -3890 3891 0
-91 -3890 3891 0
-3891 92 -1 0
-1 -3891 3892 0
92 -3891 3892 0
-3892 12 -65 0
-65 -3892 3893 0
12 -3892 3893 0
-3893 -11 66 0
66 -3893 3894 0
-11 -3893 3894 0
-3894 80 -169 0
-169 -3894 3895 0
80 -3894 3895 0
-3895 79 -170 0
-170 -3895 3896 0
79 -3895 3896 0
-3896 173 -102 0
-102 -3896 3897 0
173 -3896 3897 0
-3897 -174 101 0
101 -3897 3898 0
-174 -3897 3898 0
-3898 -75 166 0
166 -3898 3899 0
-75 -3898 3899 0
-3899 -76 165 0
165 -3899 3900 0
-76 -3899 3900 0
-3900 -77 168 0
168 -3900 3901 0
-77 -3900 3901 0
-3901 -78 167 0
167 -3901 3902 0
-78 -3901 3902 0
-3902 66 -138 0
-138 -3902 3903 0
66 -3902 3903 0
-3903 -63 135 0
135 -3903 3904 0
-63 -3903 3904 0
-3904 -64 136 0
136 -3904 3905 0
-64 -3904 3905 0
-3905 -65 137 0
137 -3905 3906 0
-65 -3905 3906 0
-3906 22 -39 0
-39 -3906 3907 0
22 -3906 3907 0
-3907 21 -40 0
-40 -3907 3908 0
21 -3907 3908 0
-3908 -85 175 0
175 -3908 3909 0
-85 -3908 3909 0
-3909 -86 176 0
176 -3909 3910 0
-86 -3909 3910 0
-3910 -119 84 0
84 -3910 3911 0
-119 -3910 3911 0
-3911 -120 83 0
83 -3911 3912 0
-120 -3911 3912 0
-3912 62 -134 0
-134 -3912 3913 0
62 -3912 3913 0
-3913 61 -133 0
-133 -3913 3914 0
61 -3913 3914 0
-3914 60 -132 0
-132 -3914 3915 0
60 -3914 3915 0
-3915 59 -131 0
-131 -3915 3916 0
59 -3915 3916 0
-3916 34 -51 0
-51 -3916 3917 0
34 -3916 3917 0
-3917 33 -52 0
-52 -3917 3918 0
33 -3917 3918 0
-3918 28 -46 0
-46 -3918 3919 0
28 -3918 3919 0
-3919 27 -45 0
-45 -3919 3920 0
27 -3919 3920 0
-3920 20 -38 0
-38 -3920 3921 0
20 -3920 3921 0
-3921 19 -37 0
-37 -3921 3922 0
19 -3921 3922 0
-3922 -99 9 0
9 -3922 3923 0
-99 -3922 3923 0
-3923 -100 10 0
10 -3923 3924 0
-100 -3923 3924 0
-3924 108 -18 0
-18 -3924 3925 0
108 -3924 3925 0
-3925 107 -17 0
-17 -3925 3926 0
107 -3925 3926 0
-3926 -103 14 0
14 -3926 3927 0
-103 -3926 3927 0
-3927 -104 13 0
13 -3927 3928 0
-104 -3927 3928 0
-3928 -105 15 0
15 -3928 3929 0
-105 -3928 3929 0
-3929 -106 16 0
16 -3929 3930 0
-106 -3929 3930 0
-3930 -98 7 0
7 -3930 3931 0
-98 -3930 3931 0
-3931 -9 63 0
63 -3931 3932 0
-9 -3931 3932 0
-3932 -10 64 0
64 -3932 3933 0
-10 -3932 3933 0
-3933 97 -8 0
-8 -3933 3934 0
97 -3933 3934 0
-3934 -89 179 0
179 -3934 3935 0
-89 -3934 3935 0
-3935 -90 180 0
180 -3935 3936 0
-90 -3935 3936 0
-3936 94 -3 0
-3 -3936 3937 0
94 -3936 3937 0
-3937 93 -4 0
-4 -3937 3938 0
93 -3937 3938 0
-3938 -15 69 0
69 -3938 3939 0
-15 -3938 3939 0
-3939 -16 70 0
70 -3939 3940 0
-16 -3939 3940 0
-3940 -29 48 0
48 -3940 3941 0
-29 -3940 3941 0
-3941 -30 47 0
47 -3941 3942 0
-30 -3941 3942 0
-3942 -31 49 0
49 -3942 3943 0
-31 -3942 3943 0
-3943 -32 50 0
50 -3943 3944 0
-32 -3943 3944 0
-3944 -35 54 0
54 -3944 3945 0
-35 -3944 3945 0
-3945 -36 53 0
53 -3945 3946 0
-36 -3945 3946 0
-3946 -45 117 0
117 -3946 3947 0
-45 -3946 3947 0
-3947 -46 118 0
118 -3947 3948 0
-46 -3947 3948 0
-3948 -102 12 0
12 -3948 3949 0
-102 -3948 3949 0
-3949 101 -11 0
-11 -3949 3950 0
101 -3949 3950 0
-3950 144 -35 0
-35 -3950 3951 0
144 -3950 3951 0
-3951 143 -36 0
-36 -3951 3952 0
143 -3951 3952 0
-3952 -131 23 0
23 -3952 3953 0
-131 -3952 3953 0
-3953 -132 24 0
24 -3953 3954 0
-132 -3953 3954 0
-3954 -67 139 0
139 -3954 3955 0
-67 -3954 3955 0
-3955 -95 6 0
6 -3955 3956 0
-95 -3955 3956 0
-3956 178 -105 0
-105 -3956 3957 0
178 -3956 3957 0
-3957 177 -106 0
-106 -3957 3958 0
177 -3957 3958 0
-3958 -96 5 0
5 -3958 3959 0
-96 -3958 3959 0
-3959 68 -140 0
-140 -3959 3960 0
68 -3959 3960 0
-3960 -123 87 0
87 -3960 3961 0
-123 -3960 3961 0
-3961 133 -25 0
-25 -3961 3962 0
133 -3961 3962 0
-3962 -134 26 0
26 -3962 3963 0
-134 -3962 3963 0
-3963 -124 88 0
88 -3963 3964 0
-124 -3963 3964 0
-3964 38 -110 0
-110 -3964 3965 0
38 -3964 3965 0
-3965 -23 42 0
42 -3965 3966 0
-23 -3965 3966 0
-3966 37 -109 0
-109 -3966 3967 0
37 -3966 3967 0
-3967 -43 115 0
115 -3967 3968 0
-43 -3967 3968 0
-3968 69 -141 0
-141 -3968 3969 0
69 -3968 3969 0
-3969 -70 142 0
142 -3969 3970 0
-70 -3969 3970 0
-3970 -24 41 0
41 -3970 3971 0
-24 -3970 3971 0
-3971 -25 43 0
43 -3971 3972 0
-25 -3971 3972 0
-3972 -81 171 0
171 -3972 3973 0
-81 -3972 3973 0
-3973 -44 116 0
116 -3973 3974 0
-44 -3973 3974 0
-3974 -26 44 0
44 -3974 3975 0
-26 -3974 3975 0
-3975 -82 172 0
172 -3975 3976 0
-82 -3975 3976 0
-3976 -87 178 0
178 -3976 3977 0
-87 -3976 3977 0
-3977 -88 177 0
177 -3977 3978 0
-88 -3977 3978 0
-3978 136 -27 0
-27 -3978 3979 0
136 -3978 3979 0
-3979 -135 28 0
28 -3979 3980 0
-135 -3979 3980 0
-3980 52 -123 0
-123 -3980 3981 0
52 -3980 3981 0
-3981 -127 19 0
19 -3981 3982 0
-127 -3981 3982 0
-3982 -128 20 0
20 -3982 3983 0
-128 -3982 3983 0
-3983 42 -113 0
-113 -3983 3984 0
42 -3983 3984 0
-3984 41 -114 0
-114 -3984 3985 0
41 -3984 3985 0
-3985 51 -124 0
3986 0
152 -150 0
-150 -3986 3987 0
152 -3986 3987 0
-3987 -146 156 0
156 -3987 3988 0
-146 -3987 3988 0
-3988 -151 149 0
149 -3988 3989 0
-151 -3988 3989 0
-3989 145 -155 0
-155 -3989 3990 0
145 -3989 3990 0
-3990 -149 151 0
151 -3990 3991 0
-149 -3990 3991 0
-3991 -1 174 0
174 -3991 3992 0
-1 -3991 3992 0
-3992 -150 152 0
152 -3992 3993 0
-150 -3992 3993 0
-3993 2 -173 0
-173 -3993 3994 0
2 -3993 3994 0
-3994 14 -176 0
-176 -3994 3995 0
14 -3994 3995 0
-3995 13 -175 0
-175 -3995 3996 0
13 -3995 3996 0
-3996 -121 32 0
32 -3996 3997 0
-121 -3996 3997 0
-3997 -122 31 0
31 -3997 3998 0
-122 -3997 3998 0
-3998 180 -126 0
-126 -3998 3999 0
180 -3998 3999 0
-3999 126 -36 0
-36 -3999 4000 0
126 -3999 4000 0
-4000 179 -125 0
-125 -4000 4001 0
179 -4000 4001 0
-4001 -17 180 0
180 -4001 4002 0
-17 -4001 4002 0
-4002 -18 179 0
179 -4002 4003 0
-18 -4002 4003 0
-4003 125 -35 0
-35 -4003 4004 0
125 -4003 4004 0
-4004 156 -145 0
-145 -4004 4005 0
156 -4004 4005 0
-4005 176 -122 0
-122 -4005 4006 0
176 -4005 4006 0
-4006 175 -121 0
-121 -4006 4007 0
175 -4006 4007 0
-4007 155 -146 0
-146 -4007 4008 0
155 -4007 4008 0
-4008 -5 169 0
169 -4008 4009 0
-5 -4008 4009 0
-4009 -6 170 0
170 -4009 4010 0
-6 -4009 4010 0
-4010 -115 23 0
23 -4010 4011 0
-115 -4010 4011 0
-4011 -116 24 0
24 -4011 4012 0
-116 -4011 4012 0
-4012 -113 26 0
26 -4012 4013 0
-113 -4012 4013 0
-4013 -114 25 0
25 -4013 4014 0
-114 -4013 4014 0
-4014 4 -166 0
-166 -4014 4015 0
4 -4014 4015 0
-4015 3 -165 0
-165 -4015 4016 0
3 -4015 4016 0
-4016 -163 119 0
119 -4016 4017 0
-163 -4016 4017 0
-4017 166 -112 0
-112 -4017 4018 0
166 -4017 4018 0
-4018 165 -111 0
-111 -4018 4019 0
165 -4018 4019 0
-4019 164 -120 0
-120 -4019 4020 0
164 -4019 4020 0
-4020 -167 116 0
116 -4020 4021 0
-167 -4020 4021 0
-4021 -109 30 0
30 -4021 4022 0
-109 -4021 4022 0
-4022 -110 29 0
29 -4022 4023 0
-110 -4022 4023 0
-4023 -168 115 0
115 -4023 4024 0
-168 -4023 4024 0
-4024 72 -107 0
-107 -4024 4025 0
72 -4024 4025 0
-4025 112 -22 0
-22 -4025 4026 0
112 -4025 4026 0
-4026 111 -21 0
-21 -4026 4027 0
111 -4026 4027 0
-4027 71 -108 0
-108 -4027 4028 0
71 -4027 4028 0
-4028 7 -167 0
-167 -4028 4029 0
7 -4028 4029 0
-4029 8 -168 0
-168 -4029 4030 0
8 -4029 4030 0
-4030 -169 113 0
113 -4030 4031 0
-169 -4030 4031 0
-4031 -83 37 0
37 -4031 4032 0
-83 -4031 4032 0
-4032 -170 114 0
114 -4032 4033 0
-170 -4032 4033 0
-4033 84 -38 0
-38 -4033 4034 0
84 -4033 4034 0
-4034 -57 94 0
94 -4034 4035 0
-57 -4034 4035 0
-4035 -58 93 0
93 -4035 4036 0
-58 -4035 4036 0
-4036 117 -27 0
-27 -4036 4037 0
117 -4036 4037 0
-4037 -73 47 0
47 -4037 4038 0
-73 -4037 4038 0
-4038 74 -48 0
-48 -4038 4039 0
74 -4038 4039 0
-4039 56 -101 0
-101 -4039 4040 0
56 -4039 4040 0
-4040 55 -102 0
-102 -4040 4041 0
55 -4040 4041 0
-4041 172 -117 0
-117 -4041 4042 0
172 -4041 4042 0
-4042 171 -118 0
-118 -4042 4043 0
171 -4042 4043 0
-4043 118 -28 0
-28 -4043 4044 0
118 -4043 4044 0
-4044 -91 83 0
83 -4044 4045 0
-91 -4044 4045 0
-4045 92 -84 0
-84 -4045 4046 0
92 -4045 4046 0
-4046 12 -163 0
-163 -4046 4047 0
12 -4046 4047 0
-4047 -11 164 0
164 -4047 4048 0
-11 -4047 4048 0
-4048 80 -42 0
-42 -4048 4049 0
80 -4048 4049 0
-4049 79 -41 0
-41 -4049 4050 0
79 -4049 4050 0
-4050 173 -109 0
-109 -4050 4051 0
173 -4050 4051 0
-4051 -174 110 0
110 -4051 4052 0
-174 -4051 4052 0
-4052 -75 39 0
39 -4052 4053 0
-75 -4052 4053 0
-4053 -76 40 0
40 -4053 4054 0
-76 -4053 4054 0
-4054 -77 43 0
43 -4054 4055 0
-77 -4054 4055 0
-4055 -78 44 0
44 -4055 4056 0
-78 -4055 4056 0
-4056 66 -91 0
-91 -4056 4057 0
66 -4056 4057 0
-4057 -63 99 0
99 -4057 4058 0
-63 -4057 4058 0
-4058 -64 100 0
100 -4058 4059 0
-64 -4058 4059 0
-4059 -65 92 0
92 -4059 4060 0
-65 -4059 4060 0
-4060 22 -57 0
-57 -4060 4061 0
22 -4060 4061 0
-4061 21 -58 0
-58 -4061 4062 0
21 -4061 4062 0
-4062 -85 49 0
49 -4062 4063 0
-85 -4062 4063 0
-4063 -86 50 0
50 -4063 4064 0
-86 -4063 4064 0
-4064 -119 20 0
20 -4064 4065 0
-119 -4064 4065 0
-4065 -120 19 0
19 -4065 4066 0
-120 -4065 4066 0
-4066 62 -96 0
-96 -4066 4067 0
62 -4066 4067 0
-4067 61 -95 0
-95 -4067 4068 0
61 -4067 4068 0
-4068 60 -98 0
-98 -4068 4069 0
60 -4068 4069 0
-4069 59 -97 0
-97 -4069 4070 0
59 -4069 4070 0
-4070 34 -70 0
-70 -4070 4071 0
34 -4070 4071 0
-4071 33 -69 0
-69 -4071 4072 0
33 -4071 4072 0
-4072 28 -63 0
-63 -4072 4073 0
28 -4072 4073 0
-4073 27 -64 0
-64 -4073 4074 0
27 -4073 4074 0
-4074 20 -65 0
-65 -4074 4075 0
20 -4074 4075 0
-4075 19 -66 0
-66 -4075 4076 0
19 -4075 4076 0
-4076 -99 82 0
82 -4076 4077 0
-99 -4076 4077 0
-4077 -100 81 0
81 -4077 4078 0
-100 -4077 4078 0
-4078 108 -89 0
-89 -4078 4079 0
108 -4078 4079 0
-4079 107 -90 0
-90 -4079 4080 0
107 -4079 4080 0
-4080 -103 85 0
85 -4080 4081 0
-103 -4080 4081 0
-4081 -104 86 0
86 -4081 4082 0
-104 -4081 4082 0
-4082 -105 87 0
87 -4082 4083 0
-105 -4082 4083 0
-4083 -106 88 0
88 -4083 4084 0
-106 -4083 4084 0
-4084 -98 78 0
78 -4084 4085 0
-98 -4084 4085 0
-4085 -9 171 0
171 -4085 4086 0
-9 -4085 4086 0
-4086 -10 172 0
172 -4086 4087 0
-10 -4086 4087 0
-4087 97 -77 0
-77 -4087 4088 0
97 -4087 4088 0
-4088 -89 53 0
53 -4088 4089 0
-89 -4088 4089 0
-4089 -90 54 0
54 -4089 4090 0
-90 -4089 4090 0
-4090 94 -75 0
-75 -4090 4091 0
94 -4090 4091 0
-4091 93 -76 0
-76 -4091 4092 0
93 -4091 4092 0
-4092 -15 178 0
178 -4092 4093 0
-15 -4092 4093 0
-4093 -16 177 0
177 -4093 4094 0
-16 -4093 4094 0
-4094 -29 56 0
56 -4094 4095 0
-29 -4094 4095 0
-4095 -30 55 0
55 -4095 4096 0
-30 -4095 4096 0
-4096 -31 67 0
67 -4096 4097 0
-31 -4096 4097 0
-4097 -32 68 0
68 -4097 4098 0
-32 -4097 4098 0
-4098 -35 71 0
71 -4098 4099 0
-35 -4098 4099 0
-4099 -36 72 0
72 -4099 4100 0
-36 -4099 4100 0
-4100 -45 136 0
136 -4100 4101 0
-45 -4100 4101 0
-4101 -46 135 0
135 -4101 4102 0
-46 -4101 4102 0
-4102 -102 73 0
73 -4102 4103 0
-102 -4102 4103 0
-4103 101 -74 0
-74 -4103 4104 0
101 -4103 4104 0
-4104 144 -18 0
-18 -4104 4105 0
144 -4104 4105 0
-4105 143 -17 0
-17 -4105 4106 0
143 -4105 4106 0
-4106 -131 8 0
8 -4106 4107 0
-131 -4106 4107 0
-4107 -132 7 0
7 -4107 4108 0
-132 -4107 4108 0
-4108 -67 104 0
104 -4108 4109 0
-67 -4108 4109 0
-4109 -95 79 0
79 -4109 4110 0
-95 -4109 4110 0
-4110 178 -123 0
-123 -4110 4111 0
178 -4110 4111 0
-4111 177 -124 0
-124 -4111 4112 0
177 -4111 4112 0
-4112 -96 80 0
80 -4112 4113 0
-96 -4112 4113 0
-4113 68 -103 0
-103 -4113 4114 0
68 -4113 4114 0
-4114 -123 34 0
34 -4114 4115 0
-123 -4114 4115 0
-4115 133 -5 0
-5 -4115 4116 0
133 -4115 4116 0
-4116 -134 6 0
6 -4116 4117 0
-134 -4116 4117 0
-4117 -124 33 0
33 -4117 4118 0
-124 -4117 4118 0
-4118 38 -137 0
-137 -4118 4119 0
38 -4118 4119 0
-4119 -23 62 0
62 -4119 4120 0
-23 -4119 4120 0
-4120 37 -138 0
-138 -4120 4121 0
37 -4120 4121 0
-4121 -43 131 0
131 -4121 4122 0
-43 -4121 4122 0
-4122 69 -105 0
-105 -4122 4123 0
69 -4122 4123 0
-4123 -70 106 0
106 -4123 4124 0
-70 -4123 4124 0
-4124 -24 61 0
61 -4124 4125 0
-24 -4124 4125 0
-4125 -25 59 0
59 -4125 4126 0
-25 -4125 4126 0
-4126 -81 45 0
45 -4126 4127 0
-81 -4126 4127 0
-4127 -44 132 0
132 -4127 4128 0
-44 -4127 4128 0
-4128 -26 60 0
60 -4128 4129 0
-26 -4128 4129 0
-4129 -82 46 0
46 -4129 4130 0
-82 -4129 4130 0
-4130 -87 51 0
51 -4130 4131 0
-87 -4130 4131 0
-4131 -88 52 0
52 -4131 4132 0
-88 -4131 4132 0
-4132 136 -9 0
-9 -4132 4133 0
136 -4132 4133 0
-4133 -135 10 0
10 -4133 4134 0
-135 -4133 4134 0
-4134 52 -142 0
-142 -4134 4135 0
52 -4134 4135 0
-4135 -127 12 0
12 -4135 4136 0
-127 -4135 4136 0
-4136 -128 11 0
11 -4136 4137 0
-128 -4136 4137 0
-4137 42 -134 0
-134 -4137 4138 0
42 -4137 4138 0
-4138 41 -133 0
-133 -4138 4139 0
41 -4138 4139 0
-4139 51 -141 0
-141 -4139 4140 0
51 -4139 4140 0
-4140 -39 130 0
130 -4140 4141 0
-39 -4140 4141 0
-4141 -40 129 0
129 -4141 4142 0
-40 -4141 4142 0
-4142 -139 14 0
14 -4142 4143 0
-139 -4142 4143 0
-4143 -140 13 0
13 -4143 4144 0
-140 -4143 4144 0
-4144 142 -16 0
4145 0
147 -154 0
-154 -4145 4146 0
147 -4145 4146 0
-4146 -148 153 0
153 -4146 4147 0
-148 -4146 4147 0
-4147 -1 128 0
128 -4147 4148 0
-1 -4147 4148 0
-4148 2 -127 0
-127 -4148 4149 0
2 -4148 4149 0
-4149 14 -141 0
-141 -4149 4150 0
14 -4149 4150 0
-4150 13 -142 0
-142 -4150 4151 0
13 -4150 4151 0
-4151 -121 177 0
177 -4151 4152 0
-121 -4151 4152 0
-4152 -122 178 0
178 -4152 4153 0
-122 -4152 4153 0
-4153 180 -13 0
-13 -4153 4154 0
180 -4153 4154 0
-4154 126 -175 0
-175 -4154 4155 0
126 -4154 4155 0
-4155 179 -14 0
-14 -4155 4156 0
179 -4155 4156 0
-4156 -17 140 0
140 -4156 4157 0
-17 -4156 4157 0
-4157 -18 139 0
139 -4157 4158 0
-18 -4157 4158 0
-4158 125 -176 0
-176 -4158 4159 0
125 -4158 4159 0
-4159 162 -158 0
-158 -4159 4160 0
162 -4159 4160 0
-4160 161 -157 0
-157 -4160 4161 0
161 -4160 4161 0
-4161 176 -15 0
-15 -4161 4162 0
176 -4161 4162 0
-4162 175 -16 0
-16 -4162 4163 0
175 -4162 4163 0
-4163 -153 161 0
161 -4163 4164 0
-153 -4163 4164 0
-4164 -154 162 0
162 -4164 4165 0
-154 -4164 4165 0
-4165 -5 132 0
132 -4165 4166 0
-5 -4165 4166 0
-4166 -6 131 0
131 -4166 4167 0
-6 -4166 4167 0
-4167 -115 169 0
169 -4167 4168 0
-115 -4167 4168 0
-4168 -116 170 0
170 -4168 4169 0
-116 -4168 4169 0
-4169 -113 167 0
167 -4169 4170 0
-113 -4169 4170 0
-4170 -114 168 0
168 -4170 4171 0
-114 -4170 4171 0
-4171 4 -136 0
-136 -4171 4172 0
4 -4171 4172 0
-4172 3 -135 0
-135 -4172 4173 0
3 -4172 4173 0
-4173 -163 1 0
1 -4173 4174 0
-163 -4173 4174 0
-4174 166 -10 0
-10 -4174 4175 0
166 -4174 4175 0
-4175 165 -9 0
-9 -4175 4176 0
165 -4175 4176 0
-4176 164 -2 0
-2 -4176 4177 0
164 -4176 4177 0
-4177 -167 6 0
6 -4177 4178 0
-167 -4177 4178 0
-4178 -109 163 0
163 -4178 4179 0
-109 -4178 4179 0
-4179 -110 164 0
164 -4179 4180 0
-110 -4179 4180 0
-4180 -168 5 0
5 -4180 4181 0
-168 -4180 4181 0
-4181 158 -159 0
-159 -4181 4182 0
158 -4181 4182 0
-4182 157 -160 0
-160 -4182 4183 0
157 -4182 4183 0
-4183 72 -32 0
-32 -4183 4184 0
72 -4183 4184 0
-4184 112 -171 0
-171 -4184 4185 0
112 -4184 4185 0
-4185 111 -172 0
-172 -4185 4186 0
111 -4185 4186 0
-4186 71 -31 0
-31 -4186 4187 0
71 -4186 4187 0
-4187 7 -133 0
-133 -4187 4188 0
7 -4187 4188 0
-4188 8 -134 0
-134 -4188 4189 0
8 -4188 4189 0
-4189 -169 7 0
7 -4189 4190 0
-169 -4189 4190 0
-4190 -83 102 0
102 -4190 4191 0
-83 -4190 4191 0
-4191 -170 8 0
8 -4191 4192 0
-170 -4191 4192 0
-4192 84 -101 0
-101 -4192 4193 0
84 -4192 4193 0
-4193 -57 28 0
28 -4193 4194 0
-57 -4193 4194 0
-4194 -58 27 0
27 -4194 4195 0
-58 -4194 4195 0
-4195 117 -180 0
-180 -4195 4196 0
117 -4195 4196 0
-4196 -73 92 0
92 -4196 4197 0
-73 -4196 4197 0
-4197 74 -91 0
-91 -4197 4198 0
74 -4197 4198 0
-4198 56 -19 0
-19 -4198 4199 0
56 -4198 4199 0
-4199 55 -20 0
-20 -4199 4200 0
55 -4199 4200 0
-4200 172 -17 0
-17 -4200 4201 0
172 -4200 4201 0
-4201 171 -18 0
-18 -4201 4202 0
171 -4201 4202 0
-4202 118 -179 0
-179 -4202 4203 0
118 -4202 4203 0
-4203 -91 55 0
55 -4203 4204 0
-91 -4203 4204 0
-4204 92 -56 0
-56 -4204 4205 0
92 -4204 4205 0
-4205 12 -137 0
-137 -4205 4206 0
12 -4205 4206 0
-4206 -11 138 0
138 -4206 4207 0
-11 -4206 4207 0
-4207 80 -98 0
-98 -4207 4208 0
80 -4207 4208 0
-4208 79 -97 0
-97 -4208 4209 0
79 -4208 4209 0
-4209 173 -12 0
-12 -4209 4210 0
173 -4209 4210 0
-4210 -174 11 0
11 -4210 4211 0
-174 -4210 4211 0
-4211 -75 100 0
100 -4211 4212 0
-75 -4211 4212 0
-4212 -76 99 0
99 -4212 4213 0
-76 -4212 4213 0
-4213 -77 96 0
96 -4213 4214 0
-77 -4213 4214 0
-4214 -78 95 0
95 -4214 4215 0
-78 -4214 4215 0
-4215 66 -30 0
-30 -4215 4216 0
66 -4215 4216 0
-4216 -63 35 0
35 -4216 4217 0
-63 -4216 4217 0
-4217 -64 36 0
36 -4217 4218 0
-64 -4217 4218 0
-4218 -65 29 0
29 -4218 4219 0
-65 -4218 4219 0
-4219 22 -118 0
-118 -4219 4220 0
22 -4219 4220 0
-4220 21 -117 0
-117 -4220 4221 0
21 -4220 4221 0
-4221 -85 105 0
105 -4221 4222 0
-85 -4221 4222 0
-4222 -86 106 0
106 -4222 4223 0
-86 -4222 4223 0
-4223 -119 174 0
174 -4223 4224 0
-119 -4223 4224 0
-4224 -120 173 0
173 -4224 4225 0
-120 -4224 4225 0
-4225 62 -26 0
-26 -4225 4226 0
62 -4225 4226 0
-4226 61 -25 0
-25 -4226 4227 0
61 -4226 4227 0
-4227 60 -24 0
-24 -4227 4228 0
60 -4227 4228 0
-4228 59 -23 0
-23 -4228 4229 0
59 -4228 4229 0
-4229 34 -112 0
-112 -4229 4230 0
34 -4229 4230 0
-4230 33 -111 0
-111 -4230 4231 0
33 -4230 4231 0
-4231 28 -125 0
-125 -4231 4232 0
28 -4231 4232 0
-4232 27 -126 0
-126 -4232 4233 0
27 -4232 4233 0
-4233 20 -110 0
-110 -4233 4234 0
20 -4233 4234 0
-4234 19 -109 0
-109 -4234 4235 0
19 -4234 4235 0
-4235 -99 71 0
71 -4235 4236 0
-99 -4235 4236 0
-4236 -100 72 0
72 -4236 4237 0
-100 -4236 4237 0
-4237 108 -67 0
-67 -4237 4238 0
108 -4237 4238 0
-4238 107 -68 0
-68 -4238 4239 0
107 -4238 4239 0
-4239 -103 69 0
69 -4239 4240 0
-103 -4239 4240 0
-4240 -104 70 0
70 -4240 4241 0
-104 -4240 4241 0
-4241 -105 57 0
57 -4241 4242 0
-105 -4241 4242 0
-4242 -106 58 0
58 -4242 4243 0
-106 -4242 4243 0
-4243 -98 61 0
61 -4243 4244 0
-98 -4243 4244 0
-4244 -9 144 0
144 -4244 4245 0
-9 -4244 4245 0
-4245 -10 143 0
143 -4245 4246 0
-10 -4245 4246 0
-4246 97 -62 0
-62 -4246 4247 0
97 -4246 4247 0
-4247 -89 103 0
103 -4247 4248 0
-89 -4247 4248 0
-4248 -90 104 0
104 -4248 4249 0
-90 -4248 4249 0
-4249 94 -63 0
-63 -4249 4250 0
94 -4249 4250 0
-4250 93 -64 0
-64 -4250 4251 0
93 -4250 4251 0
-4251 -15 130 0
130 -4251 4252 0
-15 -4251 4252 0
-4252 -16 129 0
129 -4252 4253 0
-16 -4252 4253 0
-4253 -29 120 0
120 -4253 4254 0
-29 -4253 4254 0
-4254 -30 119 0
119 -4254 4255 0
-30 -4254 4255 0
-4255 -31 123 0
123 -4255 4256 0
-31 -4255 4256 0
-4256 -32 124 0
124 -4256 4257 0
-32 -4256 4257 0
-4257 -35 122 0
122 -4257 4258 0
-35 -4257 4258 0
-4258 -36 121 0
121 -4258 4259 0
-36 -4258 4259 0
-4259 160 -148 0
-148 -4259 4260 0
160 -4259 4260 0
-4260 159 -147 0
-147 -4260 4261 0
159 -4260 4261 0
-4261 -45 90 0
90 -4261 4262 0
-45 -4261 4262 0
-4262 -46 89 0
89 -4262 4263 0
-46 -4262 4263 0
-4263 -102 65 0
65 -4263 4264 0
-102 -4263 4264 0
-4264 101 -66 0
-66 -4264 4265 0
101 -4264 4265 0
-4265 144 -49 0
-49 -4265 4266 0
144 -4265 4266 0
-4266 143 -50 0
-50 -4266 4267 0
143 -4266 4267 0
-4267 -131 42 0
42 -4267 4268 0
-131 -4267 4268 0
-4268 -132 41 0
41 -4268 4269 0
-132 -4268 4269 0
-4269 -67 34 0
34 -4269 4270 0
-67 -4269 4270 0
-4270 -95 59 0
59 -4270 4271 0
-95 -4270 4271 0
-4271 178 -3 0
-3 -4271 4272 0
178 -4271 4272 0
-4272 177 -4 0
-4 -4272 4273 0
177 -4272 4273 0
-4273 -96 60 0
60 -4273 4274 0
-96 -4273 4274 0
-4274 68 -33 0
-33 -4274 4275 0
68 -4274 4275 0
-4275 -123 165 0
165 -4275 4276 0
-123 -4275 4276 0
-4276 133 -43 0
-43 -4276 4277 0
133 -4276 4277 0
-4277 -134 44 0
44 -4277 4278 0
-134 -4277 4278 0
-4278 -124 166 0
166 -4278 4279 0
-124 -4278 4279 0
-4279 38 -74 0
-74 -4279 4280 0
38 -4279 4280 0
-4280 -23 114 0
114 -4280 4281 0
-23 -4280 4281 0
-4281 37 -73 0
-73 -4281 4282 0
37 -4281 4282 0
-4282 -43 80 0
80 -4282 4283 0
-43 -4282 4283 0
-4283 69 -22 0
-22 -4283 4284 0
69 -4283 4284 0
-4284 -70 21 0
21 -4284 4285 0
-70 -4284 4285 0
-4285 -24 113 0
113 -4285 4286 0
-24 -4285 4286 0
-4286 -25 115 0
115 -4286 4287 0
-25 -4286 4287 0
-4287 -81 108 0
108 -4287 4288 0
-81 -4287 4288 0
-4288 -44 79 0
79 -4288 4289 0
-44 -4288 4289 0
-4289 -26 116 0
116 -4289 4290 0
-26 -4289 4290 0
-4290 -82 107 0
107 -4290 4291 0
-82 -4290 4291 0
-4291 -87 94 0
94 -4291 4292 0
-87 -4291 4292 0
-4292 -88 93 0
93 -4292 4293 0
-88 -4292 4293 0
-4293 136 -53 0
-53 -4293 4294 0
136 -4293 4294 0
-4294 -135 54 0
54 -4294 4295 0
-135 -4294 4295 0
-4295 52 -76 0
-76 -4295 4296 0
52 -4295 4296 0
-4296 -127 38 0
38 -4296 4297 0
-127 -4296 4297 0
-4297 -128 37 0
37 -4297 4298 0
-128 -4297 4298 0
-4298 42 -78 0
-78 -4298 4299 0
42 -4298 4299 0
-4299 41 -77 0
-77 -4299 4300 0
41 -4299 4300 0
-4300 51 -75 0
-75 -4300 4301 0
51 -4300 4301 0
-4301 -39 82 0
82 -4301 4302 0
-39 -4301 4302 0
-4302 -40 81 0
81 -4302 4303 0
-40 -4302 4303 0
-4303 -139 51 0
51 -4303 4304 0
-139 -4303 4304 0
-4304 -140 52 0
52 -4304 4305 0
-140 -4304 4305 0
-4305 142 -40 0
4306 0
152 -160 0
-160 -4306 4307 0
152 -4306 4307 0
-4307 -151 159 0
159 -4307 4308 0
-151 -4307 4308 0
-4308 -153 152 0
152 -4308 4309 0
-153 -4308 4309 0
-4309 -154 151 0
151 -4309 4310 0
-154 -4309 4310 0
-4310 -115 123 0
123 -4310 4311 0
-115 -4310 4311 0
-4311 -116 124 0
124 -4311 4312 0
-116 -4311 4312 0
-4312 7 -16 0
-16 -4312 4313 0
7 -4312 4313 0
-4313 8 -15 0
-15 -4313 4314 0
8 -4313 4314 0
-4314 -169 177 0
177 -4314 4315 0
-169 -4314 4315 0
-4315 -170 178 0
178 -4315 4316 0
-170 -4315 4316 0
-4316 117 -116 0
-116 -4316 4317 0
117 -4316 4317 0
-4317 172 -169 0
-169 -4317 4318 0
172 -4317 4318 0
-4318 171 -170 0
-170 -4318 4319 0
171 -4318 4319 0
-4319 118 -115 0
-115 -4319 4320 0
118 -4319 4320 0
-4320 -91 128 0
128 -4320 4321 0
-91 -4320 4321 0
-4321 92 -127 0
-127 -4321 4322 0
92 -4321 4322 0
-4322 80 -88 0
-88 -4322 4323 0
80 -4322 4323 0
-4323 79 -87 0
-87 -4323 4324 0
79 -4323 4324 0
-4324 -63 62 0
62 -4324 4325 0
-63 -4324 4325 0
-4325 -64 61 0
61 -4325 4326 0
-64 -4325 4326 0
-4326 22 -40 0
-40 -4326 4327 0
22 -4326 4327 0
-4327 21 -39 0
-39 -4327 4328 0
21 -4327 4328 0
-4328 62 -70 0
-70 -4328 4329 0
62 -4328 4329 0
-4329 61 -69 0
-69 -4329 4330 0
61 -4329 4330 0
-4330 34 -46 0
-46 -4330 4331 0
34 -4330 4331 0
-4331 33 -45 0
-45 -4331 4332 0
33 -4331 4332 0
-4332 28 -44 0
-44 -4332 4333 0
28 -4332 4333 0
-4333 27 -43 0
-43 -4333 4334 0
27 -4333 4334 0
-4334 20 -38 0
-38 -4334 4335 0
20 -4334 4335 0
-4335 19 -37 0
-37 -4335 4336 0
19 -4335 4336 0
-4336 -99 134 0
134 -4336 4337 0
-99 -4336 4337 0
-4337 -100 133 0
133 -4337 4338 0
-100 -4337 4338 0
-4338 108 -143 0
-143 -4338 4339 0
108 -4338 4339 0
-4339 107 -144 0
-144 -4339 4340 0
107 -4339 4340 0
-4340 -103 140 0
140 -4340 4341 0
-103 -4340 4341 0
-4341 -104 139 0
139 -4341 4342 0
-104 -4341 4342 0
-4342 -105 136 0
136 -4342 4343 0
-105 -4342 4343 0
-4343 -106 135 0
135 -4343 4344 0
-106 -4343 4344 0
-4344 -98 141 0
141 -4344 4345 0
-98 -4344 4345 0
-4345 -9 7 0
7 -4345 4346 0
-9 -4345 4346 0
-4346 -10 8 0
8 -4346 4347 0
-10 -4346 4347 0
-4347 97 -142 0
-142 -4347 4348 0
97 -4347 4348 0
-4348 94 -129 0
-129 -4348 4349 0
94 -4348 4349 0
-4349 93 -130 0
-130 -4349 4350 0
93 -4349 4350 0
-4350 -15 10 0
10 -4350 4351 0
-15 -4350 4351 0
-4351 -16 9 0
9 -4351 4352 0
-16 -4351 4352 0
-4352 -29 47 0
47 -4352 4353 0
-29 -4352 4353 0
-4353 -30 48 0
48 -4353 4354 0
-30 -4353 4354 0
-4354 -31 49 0
49 -4354 4355 0
-31 -4354 4355 0
-4355 -32 50 0
50 -4355 4356 0
-32 -4355 4356 0
-4356 -35 53 0
53 -4356 4357 0
-35 -4356 4357 0
-4357 -36 54 0
54 -4357 4358 0
-36 -4357 4358 0
-4358 160 -153 0
-153 -4358 4359 0
160 -4358 4359 0
-4359 159 -154 0
-154 -4359 4360 0
159 -4359 4360 0
-4360 -45 26 0
26 -4360 4361 0
-45 -4360 4361 0
-4361 -46 25 0
25 -4361 4362 0
-46 -4361 4362 0
-4362 -102 137 0
137 -4362 4363 0
-102 -4362 4363 0
-4363 101 -138 0
-138 -4363 4364 0
101 -4363 4364 0
-4364 144 -107 0
-107 -4364 4365 0
144 -4364 4365 0
-4365 143 -108 0
-108 -4365 4366 0
143 -4365 4366 0
-4366 -131 96 0
96 -4366 4367 0
-131 -4366 4367 0
-4367 -132 95 0
95 -4367 4368 0
-132 -4367 4368 0
-4368 -95 132 0
132 -4368 4369 0
-95 -4368 4369 0
-4369 178 -171 0
-171 -4369 4370 0
178 -4369 4370 0
-4370 177 -172 0
-172 -4370 4371 0
177 -4370 4371 0
-4371 -96 131 0
131 -4371 4372 0
-96 -4371 4372 0
-4372 -123 118 0
118 -4372 4373 0
-123 -4372 4373 0
-4373 133 -105 0
-105 -4373 4374 0
133 -4373 4374 0
-4374 -134 106 0
106 -4374 4375 0
-134 -4374 4375 0
-4375 -124 117 0
117 -4375 4376 0
-124 -4375 4376 0
-4376 38 -20 0
-20 -4376 4377 0
38 -4376 4377 0
-4377 -23 41 0
41 -4377 4378 0
-23 -4377 4378 0
-4378 37 -19 0
-19 -4378 4379 0
37 -4378 4379 0
-4379 -43 34 0
34 -4379 4380 0
-43 -4379 4380 0
-4380 69 -64 0
4381 0
147 -169 0
-169 -4381 4382 0
147 -4381 4382 0
-4382 -148 170 0
170 -4382 4383 0
-148 -4382 4383 0
-4383 152 -163 0
-163 -4383 4384 0
152 -4383 4384 0
-4384 -146 177 0
177 -4384 4385 0
-146 -4384 4385 0
-4385 -151 164 0
164 -4385 4386 0
-151 -4385 4386 0
-4386 145 -178 0
-178 -4386 4387 0
145 -4386 4387 0
-4387 -149 180 0
180 -4387 4388 0
-149 -4387 4388 0
-4388 -1 34 0
34 -4388 4389 0
-1 -4388 4389 0
-4389 -150 179 0
179 -4389 4390 0
-150 -4389 4390 0
-4390 2 -33 0
-33 -4390 4391 0
2 -4390 4391 0
-4391 14 -24 0
-24 -4391 4392 0
14 -4391 4392 0
-4392 13 -23 0
-23 -4392 4393 0
13 -4392 4393 0
-4393 -121 114 0
114 -4393 4394 0
-121 -4393 4394 0
-4394 -122 113 0
113 -4394 4395 0
-122 -4394 4395 0
-4395 180 -39 0
-39 -4395 4396 0
180 -4395 4396 0
-4396 126 -111 0
-111 -4396 4397 0
126 -4396 4397 0
-4397 179 -40 0
-40 -4397 4398 0
179 -4397 4398 0
-4398 -17 22 0
22 -4398 4399 0
-17 -4398 4399 0
-4399 -18 21 0
21 -4399 4400 0
-18 -4399 4400 0
-4400 125 -112 0
-112 -4400 4401 0
125 -4400 4401 0
-4401 162 -165 0
-165 -4401 4402 0
162 -4401 4402 0
-4402 161 -166 0
-166 -4402 4403 0
161 -4402 4403 0
-4403 156 -176 0
-176 -4403 4404 0
156 -4403 4404 0
-4404 176 -42 0
-42 -4404 4405 0
176 -4404 4405 0
-4405 175 -41 0
-41 -4405 4406 0
175 -4405 4406 0
-4406 155 -175 0
-175 -4406 4407 0
155 -4406 4407 0
-4407 -153 173 0
173 -4407 4408 0
-153 -4407 4408 0
-4408 -154 174 0
174 -4408 4409 0
-154 -4408 4409 0
-4409 -5 35 0
35 -4409 4410 0
-5 -4409 4410 0
-4410 -6 36 0
36 -4410 4411 0
-6 -4410 4411 0
-4411 -115 110 0
110 -4411 4412 0
-115 -4411 4412 0
-4412 -116 109 0
109 -4412 4413 0
-116 -4412 4413 0
-4413 -113 125 0
125 -4413 4414 0
-113 -4413 4414 0
-4414 -114 126 0
126 -4414 4415 0
-114 -4414 4415 0
-4415 4 -25 0
-25 -4415 4416 0
4 -4415 4416 0
-4416 3 -26 0
-26 -4416 4417 0
3 -4416 4417 0
-4417 -163 51 0
51 -4417 4418 0
-163 -4417 4418 0
-4418 166 -43 0
-43 -4418 4419 0
166 -4418 4419 0
-4419 165 -44 0
-44 -4419 4420 0
165 -4419 4420 0
-4420 164 -52 0
-52 -4420 4421 0
164 -4420 4421 0
-4421 -167 53 0
53 -4421 4422 0
-167 -4421 4422 0
-4422 -109 124 0
124 -4422 4423 0
-109 -4422 4423 0
-4423 -110 123 0
123 -4423 4424 0
-110 -4423 4424 0
-4424 -168 54 0
54 -4424 4425 0
-168 -4424 4425 0
-4425 158 -167 0
-167 -4425 4426 0
158 -4425 4426 0
-4426 157 -168 0
-168 -4426 4427 0
157 -4426 4427 0
-4427 72 -75 0
-75 -4427 4428 0
72 -4427 4428 0
-4428 112 -116 0
-116 -4428 4429 0
112 -4428 4429 0
-4429 111 -115 0
-115 -4429 4430 0
111 -4429 4430 0
-4430 71 -76 0
-76 -4430 4431 0
71 -4430 4431 0
-4431 7 -20 0
-20 -4431 4432 0
7 -4431 4432 0
-4432 8 -19 0
-19 -4432 4433 0
8 -4432 4433 0
-4433 -169 37 0
37 -4433 4434 0
-169 -4433 4434 0
-4434 -83 157 0
157 -4434 4435 0
-83 -4434 4435 0
-4435 -170 38 0
38 -4435 4436 0
-170 -4435 4436 0
-4436 84 -158 0
-158 -4436 4437 0
84 -4436 4437 0
-4437 -57 79 0
79 -4437 4438 0
-57 -4437 4438 0
-4438 -58 80 0
80 -4438 4439 0
-58 -4438 4439 0
-4439 117 -119 0
-119 -4439 4440 0
117 -4439 4440 0
-4440 -73 159 0
159 -4440 4441 0
-73 -4440 4441 0
-4441 74 -160 0
-160 -4441 4442 0
74 -4441 4442 0
-4442 56 -87 0
-87 -4442 4443 0
56 -4442 4443 0
-4443 55 -88 0
-88 -4443 4444 0
55 -4443 4444 0
-4444 172 -47 0
-47 -4444 4445 0
172 -4444 4445 0
-4445 171 -48 0
-48 -4445 4446 0
171 -4445 4446 0
-4446 118 -120 0
-120 -4446 4447 0
118 -4446 4447 0
-4447 -91 15 0
15 -4447 4448 0
-91 -4447 4448 0
-4448 92 -16 0
-16 -4448 4449 0
92 -4448 4449 0
-4449 12 -31 0
-31 -4449 4450 0
12 -4449 4450 0
-4450 -11 32 0
32 -4450 4451 0
-11 -4450 4451 0
-4451 80 -145 0
-145 -4451 4452 0
80 -4451 4452 0
-4452 79 -146 0
-146 -4452 4453 0
79 -4452 4453 0
-4453 173 -49 0
-49 -4453 4454 0
173 -4453 4454 0
-4454 -174 50 0
50 -4454 4455 0
-174 -4454 4455 0
-4455 -75 152 0
152 -4455 4456 0
-75 -4455 4456 0
-4456 -76 151 0
151 -4456 4457 0
-76 -4456 4457 0
-4457 -77 162 0
162 -4457 4458 0
-77 -4457 4458 0
-4458 -78 161 0
161 -4458 4459 0
-78 -4458 4459 0
-4459 66 -86 0
-86 -4459 4460 0
66 -4459 4460 0
-4460 -63 84 0
84 -4460 4461 0
-63 -4460 4461 0
-4461 -64 83 0
83 -4461 4462 0
-64 -4461 4462 0
-4462 -65 85 0
85 -4462 4463 0
-65 -4462 4463 0
-4463 22 -133 0
-133 -4463 4464 0
22 -4463 4464 0
-4464 21 -134 0
-134 -4464 4465 0
21 -4464 4465 0
-4465 -85 149 0
149 -4465 4466 0
-85 -4465 4466 0
-4466 -86 150 0
150 -4466 4467 0
-86 -4466 4467 0
-4467 -119 121 0
121 -4467 4468 0
-119 -4467 4468 0
-4468 -120 122 0
122 -4468 4469 0
-120 -4468 4469 0
-4469 62 -73 0
-73 -4469 4470 0
62 -4469 4470 0
-4470 61 -74 0
-74 -4470 4471 0
61 -4470 4471 0
-4471 60 -89 0
-89 -4471 4472 0
60 -4471 4472 0
-4472 59 -90 0
-90 -4472 4473 0
59 -4472 4473 0
-4473 34 -135 0
-135 -4473 4474 0
34 -4473 4474 0
-4474 33 -136 0
-136 -4474 4475 0
33 -4474 4475 0
-4475 28 -138 0
-138 -4475 4476 0
28 -4475 4476 0
-4476 27 -137 0
-137 -4476 4477 0
27 -4476 4477 0
-4477 20 -142 0
-142 -4477 4478 0
20 -4477 4478 0
-4478 19 -141 0
-141 -4478 4479 0
19 -4478 4479 0
-4479 -99 12 0
12 -4479 4480 0
-99 -4479 4480 0
-4480 -100 11 0
11 -4480 4481 0
-100 -4480 4481 0
-4481 108 -3 0
-3 -4481 4482 0
108 -4481 4482 0
-4482 107 -4 0
-4 -4482 4483 0
107 -4482 4483 0
-4483 -103 6 0
6 -4483 4484 0
-103 -4483 4484 0
-4484 -104 5 0
5 -4484 4485 0
-104 -4484 4485 0
-4485 -105 10 0
10 -4485 4486 0
-105 -4485 4486 0
-4486 -106 9 0
9 -4486 4487 0
-106 -4486 4487 0
-4487 -98 2 0
2 -4487 4488 0
-98 -4487 4488 0
-4488 -9 29 0
29 -4488 4489 0
-9 -4488 4489 0
-4489 -10 30 0
30 -4489 4490 0
-10 -4489 4490 0
-4490 97 -1 0
-1 -4490 4491 0
97 -4490 4491 0
-4491 -89 147 0
147 -4491 4492 0
-89 -4491 4492 0
-4492 -90 148 0
148 -4492 4493 0
-90 -4492 4493 0
-4493 94 -8 0
-8 -4493 4494 0
94 -4493 4494 0
-4494 93 -7 0
-7 -4494 4495 0
93 -4494 4495 0
-4495 -15 27 0
27 -4495 4496 0
-15 -4495 4496 0
-4496 -16 28 0
28 -4496 4497 0
-16 -4496 4497 0
-4497 -29 140 0
140 -4497 4498 0
-29 -4497 4498 0
-4498 -30 139 0
139 -4498 4499 0
-30 -4498 4499 0
-4499 -31 131 0
131 -4499 4500 0
-31 -4499 4500 0
-4500 -32 132 0
132 -4500 4501 0
-32 -4500 4501 0
-4501 -35 129 0
129 -4501 4502 0
-35 -4501 4502 0
-4502 -36 130 0
130 -4502 4503 0
-36 -4502 4503 0
-4503 160 -171 0
-171 -4503 4504 0
160 -4503 4504 0
-4504 159 -172 0
-172 -4504 4505 0
159 -4504 4505 0
-4505 -45 101 0
101 -4505 4506 0
-45 -4505 4506 0
-4506 -46 102 0
102 -4506 4507 0
-46 -4506 4507 0
-4507 -102 14 0
14 -4507 4508 0
-102 -4507 4508 0
-4508 101 -13 0
-13 -4508 4509 0
101 -4508 4509 0
-4509 144 -58 0
-58 -4509 4510 0
144 -4509 4510 0
-4510 143 -57 0
-57 -4510 4511 0
143 -4510 4511 0
-4511 -131 72 0
72 -4511 4512 0
-131 -4511 4512 0
-4512 -132 71 0
71 -4512 4513 0
-132 -4512 4513 0
-4513 -67 77 0
77 -4513 4514 0
-67 -4513 4514 0
-4514 -95 18 0
18 -4514 4515 0
-95 -4514 4515 0
-4515 178 -45 0
-45 -4515 4516 0
178 -4515 4516 0
-4516 177 -46 0
-46 -4516 4517 0
177 -4516 4517 0
-4517 -96 17 0
17 -4517 4518 0
-96 -4517 4518 0
-4518 68 -78 0
-78 -4518 4519 0
68 -4518 4519 0
-4519 -123 117 0
117 -4519 4520 0
-123 -4519 4520 0
-4520 133 -56 0
-56 -4520 4521 0
133 -4520 4521 0
-4521 -134 55 0
55 -4521 4522 0
-134 -4521 4522 0
-4522 -124 118 0
118 -4522 4523 0
-124 -4522 4523 0
-4523 38 -105 0
-105 -4523 4524 0
38 -4523 4524 0
-4524 -23 143 0
143 -4524 4525 0
-23 -4524 4525 0
-4525 37 -106 0
-106 -4525 4526 0
37 -4525 4526 0
-4526 -43 92 0
92 -4526 4527 0
-43 -4526 4527 0
-4527 69 -82 0
-82 -4527 4528 0
69 -4527 4528 0
-4528 -70 81 0
81 -4528 4529 0
-70 -4528 4529 0
-4529 -24 144 0
144 -4529 4530 0
-24 -4529 4530 0
-4530 -25 128 0
128 -4530 4531 0
-25 -4530 4531 0
-4531 -81 156 0
156 -4531 4532 0
-81 -4531 4532 0
-4532 -44 91 0
91 -4532 4533 0
-44 -4532 4533 0
-4533 -26 127 0
127 -4533 4534 0
-26 -4533 4534 0
-4534 -82 155 0
155 -4534 4535 0
-82 -4534 4535 0
-4535 -87 154 0
154 -4535 4536 0
-87 -4535 4536 0
-4536 -88 153 0
153 -4536 4537 0
-88 -4536 4537 0
-4537 136 -66 0
-66 -4537 4538 0
136 -4537 4538 0
-4538 -135 65 0
65 -4538 4539 0
-135 -4538 4539 0
-4539 52 -99 0
-99 -4539 4540 0
52 -4539 4540 0
-4540 -127 70 0
70 -4540 4541 0
-127 -4540 4541 0
-4541 -128 69 0
69 -4541 4542 0
-128 -4541 4542 0
-4542 42 -108 0
-108 -4542 4543 0
42 -4542 4543 0
-4543 41 -107 0
-107 -4543 4544 0
41 -4543 4544 0
-4544 51 -100 0
-100 -4544 4545 0
51 -4544 4545 0
-4545 -39 98 0
98 -4545 4546 0
-39 -4545 4546 0
-4546 -40 97 0
4547 0
147 -154 0
-154 -4547 4548 0
147 -4547 4548 0
-4548 -148 153 0
153 -4548 4549 0
-148 -4548 4549 0
-4549 -1 128 0
128 -4549 4550 0
-1 -4549 4550 0
-4550 2 -127 0
-127 -4550 4551 0
2 -4550 4551 0
-4551 14 -141 0
-141 -4551 4552 0
14 -4551 4552 0
-4552 13 -142 0
-142 -4552 4553 0
13 -4552 4553 0
-4553 -121 177 0
177 -4553 4554 0
-121 -4553 4554 0
-4554 -122 178 0
178 -4554 4555 0
-122 -4554 4555 0
-4555 180 -13 0
-13 -4555 4556 0
180 -4555 4556 0
-4556 126 -175 0
-175 -4556 4557 0
126 -4556 4557 0
-4557 179 -14 0
-14 -4557 4558 0
179 -4557 4558 0
-4558 -17 140 0
140 -4558 4559 0
-17 -4558 4559 0
-4559 -18 139 0
139 -4559 4560 0
-18 -4559 4560 0
-4560 125 -176 0
-176 -4560 4561 0
125 -4560 4561 0
-4561 162 -158 0
-158 -4561 4562 0
162 -4561 4562 0
-4562 161 -157 0
-157 -4562 4563 0
161 -4562 4563 0
-4563 176 -15 0
-15 -4563 4564 0
176 -4563 4564 0
-4564 175 -16 0
-16 -4564 4565 0
175 -4564 4565 0
-4565 -153 161 0
161 -4565 4566 0
-153 -4565 4566 0
-4566 -154 162 0
162 -4566 4567 0
-154 -4566 4567 0
-4567 -5 132 0
132 -4567 4568 0
-5 -4567 4568 0
-4568 -6 131 0
131 -4568 4569 0
-6 -4568 4569 0
-4569 -115 169 0
169 -4569 4570 0
-115 -4569 4570 0
-4570 -116 170 0
170 -4570 4571 0
-116 -4570 4571 0
-4571 -113 167 0
167 -4571 4572 0
-113 -4571 4572 0
-4572 -114 168 0
168 -4572 4573 0
-114 -4572 4573 0
-4573 4 -136 0
-136 -4573 4574 0
4 -4573 4574 0
-4574 3 -135 0
-135 -4574 4575 0
3 -4574 4575 0
-4575 -163 1 0
1 -4575 4576 0
-163 -4575 4576 0
-4576 166 -10 0
-10 -4576 4577 0
166 -4576 4577 0
-4577 165 -9 0
-9 -4577 4578 0
165 -4577 4578 0
-4578 164 -2 0
-2 -4578 4579 0
164 -4578 4579 0
-4579 -167 6 0
6 -4579 4580 0
-167 -4579 4580 0
-4580 -109 163 0
163 -4580 4581 0
-109 -4580 4581 0
-4581 -110 164 0
164 -4581 4582 0
-110 -4581 4582 0
-4582 -168 5 0
5 -4582 4583 0
-168 -4582 4583 0
-4583 158 -159 0
-159 -4583 4584 0
158 -4583 4584 0
-4584 157 -160 0
-160 -4584 4585 0
157 -4584 4585 0
-4585 72 -32 0
-32 -4585 4586 0
72 -4585 4586 0
-4586 112 -171 0
-171 -4586 4587 0
112 -4586 4587 0
-4587 111 -172 0
-172 -4587 4588 0
111 -4587 4588 0
-4588 71 -31 0
-31 -4588 4589 0
71 -4588 4589 0
-4589 7 -133 0
-133 -4589 4590 0
7 -4589 4590 0
-4590 8 -134 0
-134 -4590 4591 0
8 -4590 4591 0
-4591 -169 7 0
7 -4591 4592 0
-169 -4591 4592 0
-4592 -83 102 0
102 -4592 4593 0
-83 -4592 4593 0
-4593 -170 8 0
8 -4593 4594 0
-170 -4593 4594 0
-4594 84 -101 0
-101 -4594 4595 0
84 -4594 4595 0
-4595 -57 28 0
28 -4595 4596 0
-57 -4595 4596 0
-4596 -58 27 0
27 -4596 4597 0
-58 -4596 4597 0
-4597 117 -180 0
-180 -4597 4598 0
117 -4597 4598 0
-4598 -73 92 0
92 -4598 4599 0
-73 -4598 4599 0
-4599 74 -91 0
-91 -4599 4600 0
74 -4599 4600 0
-4600 56 -19 0
-19 -4600 4601 0
56 -4600 4601 0
-4601 55 -20 0
-20 -4601 4602 0
55 -4601 4602 0
-4602 172 -17 0
-17 -4602 4603 0
172 -4602 4603 0
-4603 171 -18 0
-18 -4603 4604 0
171 -4603 4604 0
-4604 118 -179 0
-179 -4604 4605 0
118 -4604 4605 0
-4605 -91 55 0
55 -4605 4606 0
-91 -4605 4606 0
-4606 92 -56 0
-56 -4606 4607 0
92 -4606 4607 0
-4607 12 -137 0
-137 -4607 4608 0
12 -4607 4608 0
-4608 -11 138 0
138 -4608 4609 0
-11 -4608 4609 0
-4609 80 -98 0
-98 -4609 4610 0
80 -4609 4610 0
-4610 79 -97 0
-97 -4610 4611 0
79 -4610 4611 0
-4611 173 -12 0
-12 -4611 4612 0
173 -4611 4612 0
-4612 -174 11 0
11 -4612 4613 0
-174 -4612 4613 0
-4613 -75 100 0
100 -4613 4614 0
-75 -4613 4614 0
-4614 -76 99 0
99 -4614 4615 0
-76 -4614 4615 0
-4615 -77 96 0
96 -4615 4616 0
-77 -4615 4616 0
-4616 -78 95 0
95 -4616 4617 0
-78 -4616 4617 0
-4617 66 -30 0
-30 -4617 4618 0
66 -4617 4618 0
-4618 -63 35 0
35 -4618 4619 0
-63 -4618 4619 0
-4619 -64 36 0
36 -4619 4620 0
-64 -4619 4620 0
-4620 -65 29 0
29 -4620 4621 0
-65 -4620 4621 0
-4621 22 -118 0
-118 -4621 4622 0
22 -4621 4622 0
-4622 21 -117 0
-117 -4622 4623 0
21 -4622 4623 0
-4623 -85 105 0
105 -4623 4624 0
-85 -4623 4624 0
-4624 -86 106 0
106 -4624 4625 0
-86 -4624 4625 0
-4625 -119 174 0
174 -4625 4626 0
-119 -4625 4626 0
-4626 -120 173 0
173 -4626 4627 0
-120 -4626 4627 0
-4627 62 -26 0
-26 -4627 4628 0
62 -4627 4628 0
-4628 61 -25 0
-25 -4628 4629 0
61 -4628 4629 0
-4629 60 -24 0
-24 -4629 4630 0
60 -4629 4630 0
-4630 59 -23 0
-23 -4630 4631 0
59 -4630 4631 0
-4631 34 -112 0
-112 -4631 4632 0
34 -4631 4632 0
-4632 33 -111 0
-111 -4632 4633 0
33 -4632 4633 0
-4633 28 -125 0
-125 -4633 4634 0
28 -4633 4634 0
-4634 27 -126 0
-126 -4634 4635 0
27 -4634 4635 0
-4635 20 -110 0
-110 -4635 4636 0
20 -4635 4636 0
-4636 19 -109 0
-109 -4636 4637 0
19 -4636 4637 0
-4637 -99 71 0
71 -4637 4638 0
-99 -4637 4638 0
-4638 -100 72 0
72 -4638 4639 0
-100 -4638 4639 0
-4639 108 -67 0
-67 -4639 4640 0
108 -4639 4640 0
-4640 107 -68 0
-68 -4640 4641 0
107 -4640 4641 0
-4641 -103 69 0
69 -4641 4642 0
-103 -4641 4642 0
-4642 -104 70 0
70 -4642 4643 0
-104 -4642 4643 0
-4643 -105 57 0
57 -4643 4644 0
-105 -4643 4644 0
-4644 -106 58 0
58 -4644 4645 0
-106 -4644 4645 0
-4645 -98 61 0
61 -4645 4646 0
-98 -4645 4646 0
-4646 -9 144 0
144 -4646 4647 0
-9 -4646 4647 0
-4647 -10 143 0
143 -4647 4648 0
-10 -4647 4648 0
-4648 97 -62 0
-62 -4648 4649 0
97 -4648 4649 0
-4649 -89 103 0
103 -4649 4650 0
-89 -4649 4650 0
-4650 -90 104 0
104 -4650 4651 0
-90 -4650 4651 0
-4651 94 -63 0
-63 -4651 4652 0
94 -4651 4652 0
-4652 93 -64 0
-64 -4652 4653 0
93 -4652 4653 0
-4653 -15 130 0
130 -4653 4654 0
-15 -4653 4654 0
-4654 -16 129 0
129 -4654 4655 0
-16 -4654 4655 0
-4655 -29 120 0
120 -4655 4656 0
-29 -4655 4656 0
-4656 -30 119 0
119 -4656 4657 0
-30 -4656 4657 0
-4657 -31 123 0
123 -4657 4658 0
-31 -4657 4658 0
-4658 -32 124 0
124 -4658 4659 0
-32 -4658 4659 0
-4659 -35 122 0
122 -4659 4660 0
-35 -4659 4660 0
-4660 -36 121 0
121 -4660 4661 0
-36 -4660 4661 0
-4661 160 -148 0
-148 -4661 4662 0
160 -4661 4662 0
-4662 159 -147 0
-147 -4662 4663 0
159 -4662 4663 0
-4663 -45 90 0
90 -4663 4664 0
-45 -4663 4664 0
-4664 -46 89 0
89 -4664 4665 0
-46 -4664 4665 0
-4665 -102 65 0
65 -4665 4666 0
-102 -4665 4666 0
-4666 101 -66 0
-66 -4666 4667 0
101 -4666 4667 0
-4667 144 -49 0
-49 -4667 4668 0
144 -4667 4668 0
-4668 143 -50 0
-50 -4668 4669 0
143 -4668 4669 0
-4669 -131 42 0
42 -4669 4670 0
-131 -4669 4670 0
-4670 -132 41 0
41 -4670 4671 0
-132 -4670 4671 0
-4671 -67 34 0
34 -4671 4672 0
-67 -4671 4672 0
-4672 -95 59 0
59 -4672 4673 0
-95 -4672 4673 0
-4673 178 -3 0
-3 -4673 4674 0
178 -4673 4674 0
-4674 177 -4 0
-4 -4674 4675 0
177 -4674 4675 0
-4675 -96 60 0
60 -4675 4676 0
-96 -4675 4676 0
-4676 68 -33 0
-33 -4676 4677 0
68 -4676 4677 0
-4677 -123 165 0
165 -4677 4678 0
-123 -4677 4678 0
-4678 133 -43 0
-43 -4678 4679 0
133 -4678 4679 0
-4679 -134 44 0
44 -4679 4680 0
-134 -4679 4680 0
-4680 -124 166 0
166 -4680 4681 0
-124 -4680 4681 0
-4681 38 -74 0
-74 -4681 4682 0
38 -4681 4682 0
-4682 -23 113 0
113 -4682 4683 0
-23 -4682 4683 0
-4683 37 -73 0
-73 -4683 4684 0
37 -4683 4684 0
-4684 -43 80 0
80 -4684 4685 0
-43 -4684 4685 0
-4685 69 -22 0
-22 -4685 4686 0
69 -4685 4686 0
-4686 -70 21 0
21 -4686 4687 0
-70 -4686 4687 0
-4687 -24 114 0
114 -4687 4688 0
-24 -4687 4688 0
-4688 -25 115 0
115 -4688 4689 0
-25 -4688 4689 0
-4689 -81 108 0
108 -4689 4690 0
-81 -4689 4690 0
-4690 -44 79 0
79 -4690 4691 0
-44 -4690 4691 0
-4691 -26 116 0
116 -4691 4692 0
-26 -4691 4692 0
-4692 -82 107 0
107 -4692 4693 0
-82 -4692 4693 0
-4693 -87 94 0
94 -4693 4694 0
-87 -4693 4694 0
-4694 -88 93 0
93 -4694 4695 0
-88 -4694 4695 0
-4695 136 -53 0
-53 -4695 4696 0
136 -4695 4696 0
-4696 -135 54 0
54 -4696 4697 0
-135 -4696 4697 0
-4697 52 -76 0
-76 -4697 4698 0
52 -4697 4698 0
-4698 -127 38 0
38 -4698 4699 0
-127 -4698 4699 0
-4699 -128 37 0
37 -4699 4700 0
-128 -4699 4700 0
-4700 42 -78 0
-78 -4700 4701 0
42 -4700 4701 0
-4701 41 -77 0
-77 -4701 4702 0
41 -4701 4702 0
-4702 51 -75 0
-75 -4702 4703 0
51 -4702 4703 0
-4703 -39 82 0
82 -4703 4704 0
-39 -4703 4704 0
-4704 -40 81 0
81 -4704 4705 0
-40 -4704 4705 0
-4705 -139 51 0
51 -4705 4706 0
-139 -4705 4706 0
-4706 -140 52 0
4707 0
72 -89 0
-89 -4707 4708 0
72 -4707 4708 0
-4708 71 -90 0
-90 -4708 4709 0
71 -4708 4709 0
-4709 -83 101 0
101 -4709 4710 0
-83 -4709 4710 0
-4710 84 -102 0
-102 -4710 4711 0
84 -4710 4711 0
-4711 -57 76 0
76 -4711 4712 0
-57 -4711 4712 0
-4712 -58 75 0
75 -4712 4713 0
-58 -4712 4713 0
-4713 -73 91 0
91 -4713 4714 0
-73 -4713 4714 0
-4714 74 -92 0
-92 -4714 4715 0
74 -4714 4715 0
-4715 56 -73 0
-73 -4715 4716 0
56 -4715 4716 0
-4716 55 -74 0
-74 -4716 4717 0
55 -4716 4717 0
-4717 -91 56 0
56 -4717 4718 0
-91 -4717 4718 0
-4718 92 -55 0
-55 -4718 4719 0
92 -4718 4719 0
-4719 80 -98 0
-98 -4719 4720 0
80 -4719 4720 0
-4720 79 -97 0
-97 -4720 4721 0
79 -4720 4721 0
-4721 -75 93 0
93 -4721 4722 0
-75 -4721 4722 0
-4722 -76 94 0
94 -4722 4723 0
-76 -4722 4723 0
-4723 -77 96 0
96 -4723 4724 0
-77 -4723 4724 0
-4724 -78 95 0
95 -4724 4725 0
-78 -4724 4725 0
-4725 66 -84 0
-84 -4725 4726 0
66 -4725 4726 0
-4726 -63 82 0
82 -4726 4727 0
-63 -4726 4727 0
-4727 -64 81 0
81 -4727 4728 0
-64 -4727 4728 0
-4728 -65 83 0
83 -4728 4729 0
-65 -4728 4729 0
-4729 22 -40 0
-40 -4729 4730 0
22 -4729 4730 0
-4730 21 -39 0
-39 -4730 4731 0
21 -4730 4731 0
-4731 -85 104 0
104 -4731 4732 0
-85 -4731 4732 0
-4732 -86 103 0
103 -4732 4733 0
-86 -4732 4733 0
-4733 62 -79 0
-79 -4733 4734 0
62 -4733 4734 0
-4734 61 -80 0
-80 -4734 4735 0
61 -4734 4735 0
-4735 60 -77 0
-77 -4735 4736 0
60 -4735 4736 0
-4736 59 -78 0
-78 -4736 4737 0
59 -4736 4737 0
-4737 34 -52 0
-52 -4737 4738 0
34 -4737 4738 0
-4738 33 -51 0
-51 -4738 4739 0
33 -4738 4739 0
-4739 28 -46 0
-46 -4739 4740 0
28 -4739 4740 0
-4740 27 -45 0
-45 -4740 4741 0
27 -4740 4741 0
-4741 20 -38 0
-38 -4741 4742 0
20 -4741 4742 0
-4742 19 -37 0
-37 -4742 4743 0
19 -4742 4743 0
-4743 -99 63 0
63 -4743 4744 0
-99 -4743 4744 0
-4744 -100 64 0
64 -4744 4745 0
-100 -4744 4745 0
-4745 108 -71 0
-71 -4745 4746 0
108 -4745 4746 0
-4746 107 -72 0
-72 -4746 4747 0
107 -4746 4747 0
-4747 -103 67 0
67 -4747 4748 0
-103 -4747 4748 0
-4748 -104 68 0
68 -4748 4749 0
-104 -4748 4749 0
-4749 -105 69 0
69 -4749 4750 0
-105 -4749 4750 0
-4750 -106 70 0
70 -4750 4751 0
-106 -4750 4751 0
-4751 -98 61 0
61 -4751 4752 0
-98 -4751 4752 0
-4752 97 -62 0
-62 -4752 4753 0
97 -4752 4753 0
-4753 -89 107 0
107 -4753 4754 0
-89 -4753 4754 0
-4754 -90 108 0
108 -4754 4755 0
-90 -4754 4755 0
-4755 94 -57 0
-57 -4755 4756 0
94 -4755 4756 0
-4756 93 -58 0
-58 -4756 4757 0
93 -4756 4757 0
-4757 -29 47 0
47 -4757 4758 0
-29 -4757 4758 0
-4758 -30 48 0
48 -4758 4759 0
-30 -4758 4759 0
-4759 -31 49 0
49 -4759 4760 0
-31 -4759 4760 0
-4760 -32 50 0
50 -4760 4761 0
-32 -4760 4761 0
-4761 -35 53 0
53 -4761 4762 0
-35 -4761 4762 0
-4762 -36 54 0
54 -4762 4763 0
-36 -4762 4763 0
-4763 -45 28 0
28 -4763 4764 0
-45 -4763 4764 0
-4764 -46 27 0
27 -4764 4765 0
-46 -4764 4765 0
-4765 -102 66 0
66 -4765 4766 0
-102 -4765 4766 0
-4766 101 -65 0
-65 -4766 4767 0
101 -4766 4767 0
-4767 -67 86 0
86 -4767 4768 0
-67 -4767 4768 0
-4768 -95 59 0
59 -4768 4769 0
-95 -4768 4769 0
-4769 -96 60 0
60 -4769 4770 0
-96 -4769 4770 0
-4770 68 -85 0
4771 0
147 -159 0
-159 -4771 4772 0
147 -4771 4772 0
-4772 -148 160 0
160 -4772 4773 0
-148 -4772 4773 0
-4773 152 -150 0
-150 -4773 4774 0
152 -4773 4774 0
-4774 -146 156 0
156 -4774 4775 0
-146 -4774 4775 0
-4775 -151 149 0
149 -4775 4776 0
-151 -4775 4776 0
-4776 145 -155 0
-155 -4776 4777 0
145 -4776 4777 0
-4777 -149 151 0
151 -4777 4778 0
-149 -4777 4778 0
-4778 -1 119 0
119 -4778 4779 0
-1 -4778 4779 0
-4779 -150 152 0
152 -4779 4780 0
-150 -4779 4780 0
-4780 2 -120 0
-120 -4780 4781 0
2 -4780 4781 0
-4781 14 -125 0
-125 -4781 4782 0
14 -4781 4782 0
-4782 13 -126 0
-126 -4782 4783 0
13 -4782 4783 0
-4783 -121 72 0
72 -4783 4784 0
-121 -4783 4784 0
-4784 -122 71 0
71 -4784 4785 0
-122 -4784 4785 0
-4785 180 -27 0
-27 -4785 4786 0
180 -4785 4786 0
-4786 126 -64 0
-64 -4786 4787 0
126 -4786 4787 0
-4787 179 -28 0
-28 -4787 4788 0
179 -4787 4788 0
-4788 -17 117 0
117 -4788 4789 0
-17 -4788 4789 0
-4789 -18 118 0
118 -4789 4790 0
-18 -4789 4790 0
-4790 125 -63 0
-63 -4790 4791 0
125 -4790 4791 0
-4791 162 -154 0
-154 -4791 4792 0
162 -4791 4792 0
-4792 161 -153 0
-153 -4792 4793 0
161 -4792 4793 0
-4793 156 -145 0
-145 -4793 4794 0
156 -4793 4794 0
-4794 176 -35 0
-35 -4794 4795 0
176 -4794 4795 0
-4795 175 -36 0
-36 -4795 4796 0
175 -4795 4796 0
-4796 155 -146 0
-146 -4796 4797 0
155 -4796 4797 0
-4797 -153 148 0
148 -4797 4798 0
-153 -4797 4798 0
-4798 -154 147 0
147 -4798 4799 0
-154 -4798 4799 0
-4799 -5 115 0
115 -4799 4800 0
-5 -4799 4800 0
-4800 -6 116 0
116 -4800 4801 0
-6 -4800 4801 0
-4801 -115 59 0
59 -4801 4802 0
-115 -4801 4802 0
-4802 -116 60 0
60 -4802 4803 0
-116 -4802 4803 0
-4803 -113 62 0
62 -4803 4804 0
-113 -4803 4804 0
-4804 -114 61 0
61 -4804 4805 0
-114 -4804 4805 0
-4805 4 -124 0
-124 -4805 4806 0
4 -4805 4806 0
-4806 3 -123 0
-123 -4806 4807 0
3 -4806 4807 0
-4807 -163 30 0
30 -4807 4808 0
-163 -4807 4808 0
-4808 166 -33 0
-33 -4808 4809 0
166 -4808 4809 0
-4809 165 -34 0
-34 -4809 4810 0
165 -4809 4810 0
-4810 164 -29 0
-29 -4810 4811 0
164 -4810 4811 0
-4811 -167 26 0
26 -4811 4812 0
-167 -4811 4812 0
-4812 -109 66 0
66 -4812 4813 0
-109 -4812 4813 0
-4813 -110 65 0
65 -4813 4814 0
-110 -4813 4814 0
-4814 -168 25 0
25 -4814 4815 0
-168 -4814 4815 0
-4815 158 -162 0
-162 -4815 4816 0
158 -4815 4816 0
-4816 157 -161 0
-161 -4816 4817 0
157 -4816 4817 0
-4817 72 -81 0
-81 -4817 4818 0
72 -4817 4818 0
-4818 112 -69 0
-69 -4818 4819 0
112 -4818 4819 0
-4819 111 -70 0
-70 -4819 4820 0
111 -4819 4820 0
-4820 71 -82 0
-82 -4820 4821 0
71 -4820 4821 0
-4821 7 -113 0
-113 -4821 4822 0
7 -4821 4822 0
-4822 8 -114 0
-114 -4822 4823 0
8 -4822 4823 0
-4823 -169 23 0
23 -4823 4824 0
-169 -4823 4824 0
-4824 -83 128 0
128 -4824 4825 0
-83 -4824 4825 0
-4825 -170 24 0
24 -4825 4826 0
-170 -4825 4826 0
-4826 84 -127 0
-127 -4826 4827 0
84 -4826 4827 0
-4827 -57 87 0
87 -4827 4828 0
-57 -4827 4828 0
-4828 -58 88 0
88 -4828 4829 0
-58 -4828 4829 0
-4829 117 -58 0
-58 -4829 4830 0
117 -4829 4830 0
-4830 -73 138 0
138 -4830 4831 0
-73 -4830 4831 0
-4831 74 -137 0
-137 -4831 4832 0
74 -4831 4832 0
-4832 56 -84 0
-84 -4832 4833 0
56 -4832 4833 0
-4833 55 -83 0
-83 -4833 4834 0
55 -4833 4834 0
-4834 172 -21 0
-21 -4834 4835 0
172 -4834 4835 0
-4835 171 -22 0
-22 -4835 4836 0
171 -4835 4836 0
-4836 118 -57 0
-57 -4836 4837 0
118 -4836 4837 0
-4837 -91 48 0
48 -4837 4838 0
-91 -4837 4838 0
-4838 92 -47 0
-47 -4838 4839 0
92 -4838 4839 0
-4839 12 -109 0
-109 -4839 4840 0
12 -4839 4840 0
-4840 -11 110 0
110 -4840 4841 0
-11 -4840 4841 0
-4841 80 -131 0
-131 -4841 4842 0
80 -4841 4842 0
-4842 79 -132 0
-132 -4842 4843 0
79 -4842 4843 0
-4843 173 -19 0
-19 -4843 4844 0
173 -4843 4844 0
-4844 -174 20 0
20 -4844 4845 0
-174 -4844 4845 0
-4845 -75 141 0
141 -4845 4846 0
-75 -4845 4846 0
-4846 -76 142 0
142 -4846 4847 0
-76 -4846 4847 0
-4847 -77 133 0
133 -4847 4848 0
-77 -4847 4848 0
-4848 -78 134 0
134 -4848 4849 0
-78 -4848 4849 0
-4849 66 -74 0
-74 -4849 4850 0
66 -4849 4850 0
-4850 -63 75 0
75 -4850 4851 0
-63 -4850 4851 0
-4851 -64 76 0
76 -4851 4852 0
-64 -4851 4852 0
-4852 -65 73 0
73 -4852 4853 0
-65 -4852 4853 0
-4853 22 -105 0
-105 -4853 4854 0
22 -4853 4854 0
-4854 21 -106 0
-106 -4854 4855 0
21 -4854 4855 0
-4855 -85 144 0
144 -4855 4856 0
-85 -4855 4856 0
-4856 -86 143 0
143 -4856 4857 0
-86 -4856 4857 0
-4857 -119 55 0
55 -4857 4858 0
-119 -4857 4858 0
-4858 -120 56 0
56 -4858 4859 0
-120 -4858 4859 0
-4859 62 -77 0
-77 -4859 4860 0
62 -4859 4860 0
-4860 61 -78 0
-78 -4860 4861 0
61 -4860 4861 0
-4861 60 -80 0
-80 -4861 4862 0
60 -4861 4862 0
-4862 59 -79 0
-79 -4862 4863 0
59 -4862 4863 0
-4863 34 -103 0
-103 -4863 4864 0
34 -4863 4864 0
-4864 33 -104 0
-104 -4864 4865 0
33 -4864 4865 0
-4865 28 -94 0
-94 -4865 4866 0
28 -4865 4866 0
-4866 27 -93 0
-93 -4866 4867 0
27 -4866 4867 0
-4867 20 -102 0
-102 -4867 4868 0
20 -4867 4868 0
-4868 19 -101 0
-101 -4868 4869 0
19 -4868 4869 0
-4869 -99 39 0
39 -4869 4870 0
-99 -4869 4870 0
-4870 -100 40 0
40 -4870 4871 0
-100 -4870 4871 0
-4871 108 -46 0
-46 -4871 4872 0
108 -4871 4872 0
-4872 107 -45 0
-45 -4872 4873 0
107 -4872 4873 0
-4873 -103 54 0
54 -4873 4874 0
-103 -4873 4874 0
-4874 -104 53 0
53 -4874 4875 0
-104 -4874 4875 0
-4875 -105 49 0
49 -4875 4876 0
-105 -4875 4876 0
-4876 -106 50 0
50 -4876 4877 0
-106 -4876 4877 0
-4877 -98 42 0
42 -4877 4878 0
-98 -4877 4878 0
-4878 -9 112 0
112 -4878 4879 0
-9 -4878 4879 0
-4879 -10 111 0
111 -4879 4880 0
-10 -4879 4880 0
-4880 97 -41 0
-41 -4880 4881 0
97 -4880 4881 0
-4881 -89 135 0
135 -4881 4882 0
-89 -4881 4882 0
-4882 -90 136 0
136 -4882 4883 0
-90 -4882 4883 0
-4883 94 -51 0
-51 -4883 4884 0
94 -4883 4884 0
-4884 93 -52 0
-52 -4884 4885 0
93 -4884 4885 0
-4885 -15 122 0
122 -4885 4886 0
-15 -4885 4886 0
-4886 -16 121 0
121 -4886 4887 0
-16 -4886 4887 0
-4887 -29 92 0
92 -4887 4888 0
-29 -4887 4888 0
-4888 -30 91 0
91 -4888 4889 0
-30 -4888 4889 0
-4889 -31 108 0
108 -4889 4890 0
-31 -4889 4890 0
-4890 -32 107 0
107 -4890 4891 0
-32 -4890 4891 0
-4891 -35 99 0
99 -4891 4892 0
-35 -4891 4892 0
-4892 -36 100 0
100 -4892 4893 0
-36 -4892 4893 0
-4893 160 -157 0
-157 -4893 4894 0
160 -4893 4894 0
-4894 159 -158 0
-158 -4894 4895 0
159 -4894 4895 0
-4895 -45 4 0
4 -4895 4896 0
-45 -4895 4896 0
-4896 -46 3 0
3 -4896 4897 0
-46 -4896 4897 0
-4897 -102 37 0
37 -4897 4898 0
-102 -4897 4898 0
-4898 101 -38 0
-38 -4898 4899 0
101 -4898 4899 0
-4899 144 -171 0
-171 -4899 4900 0
144 -4899 4900 0
-4900 143 -172 0
-172 -4900 4901 0
143 -4900 4901 0
-4901 -131 170 0
170 -4901 4902 0
-131 -4901 4902 0
-4902 -132 169 0
169 -4902 4903 0
-132 -4902 4903 0
-4903 -67 89 0
89 -4903 4904 0
-67 -4903 4904 0
-4904 -95 44 0
44 -4904 4905 0
-95 -4904 4905 0
-4905 178 -31 0
-31 -4905 4906 0
178 -4905 4906 0
-4906 177 -32 0
-32 -4906 4907 0
177 -4906 4907 0
-4907 -96 43 0
43 -4907 4908 0
-96 -4907 4908 0
-4908 68 -90 0
-90 -4908 4909 0
68 -4908 4909 0
-4909 -123 67 0
67 -4909 4910 0
-123 -4909 4910 0
-4910 133 -167 0
-167 -4910 4911 0
133 -4910 4911 0
-4911 -134 168 0
168 -4911 4912 0
-134 -4911 4912 0
-4912 -124 68 0
68 -4912 4913 0
-124 -4912 4913 0
-4913 38 -12 0
-12 -4913 4914 0
38 -4913 4914 0
-4914 -23 97 0
97 -4914 4915 0
-23 -4914 4915 0
-4915 37 -11 0
-11 -4915 4916 0
37 -4915 4916 0
-4916 -43 6 0
6 -4916 4917 0
-43 -4916 4917 0
-4917 69 -85 0
-85 -4917 4918 0
69 -4917 4918 0
-4918 -70 86 0
86 -4918 4919 0
-70 -4918 4919 0
-4919 -24 98 0
98 -4919 4920 0
-24 -4919 4920 0
-4920 -25 95 0
95 -4920 4921 0
-25 -4920 4921 0
-4921 -81 129 0
129 -4921 4922 0
-81 -4921 4922 0
-4922 -44 5 0
5 -4922 4923 0
-44 -4922 4923 0
-4923 -26 96 0
96 -4923 4924 0
-26 -4923 4924 0
-4924 -82 130 0
130 -4924 4925 0
-82 -4924 4925 0
-4925 -87 139 0
139 -4925 4926 0
-87 -4925 4926 0
-4926 -88 140 0
140 -4926 4927 0
-88 -4926 4927 0
-4927 136 -166 0
-166 -4927 4928 0
136 -4927 4928 0
-4928 -135 165 0
165 -4928 4929 0
-135 -4928 4929 0
-4929 52 -13 0
-13 -4929 4930 0
52 -4929 4930 0
-4930 -127 173 0
173 -4930 4931 0
-127 -4930 4931 0
-4931 -128 174 0
174 -4931 4932 0
-128 -4931 4932 0
-4932 42 -8 0
-8 -4932 4933 0
42 -4932 4933 0
-4933 41 -7 0
-7 -4933 4934 0
41 -4933 4934 0
-4934 51 -14 0
-14 -4934 4935 0
51 -4934 4935 0
-4935 -39 16 0
16 -4935 4936 0
-39 -4935 4936 0
-4936 -40 15 0
15 -4936 4937 0
-40 -4936 4937 0
-4937 -139 179 0
179 -4937 4938 0
-139 -4937 4938 0
-4938 -140 180 0
180 -4938 4939 0
-140 -4938 4939 0
-4939 142 -175 0
-175 -4939 4940 0
142 -4939 4940 0
-4940 137 -163 0
-163 -4940 4941 0
137 -4940 4941 0
-4941 -138 164 0
164 -4941 4942 0
-138 -4941 4942 0
-4942 -141 176 0
4943 0
147 -154 0
-154 -4943 4944 0
147 -4943 4944 0
-4944 -148 153 0
153 -4944 4945 0
-148 -4944 4945 0
-4945 -1 128 0
128 -4945 4946 0
-1 -4945 4946 0
-4946 2 -127 0
-127 -4946 4947 0
2 -4946 4947 0
-4947 14 -141 0
-141 -4947 4948 0
14 -4947 4948 0
-4948 13 -142 0
-142 -4948 4949 0
13 -4948 4949 0
-4949 -121 177 0
177 -4949 4950 0
-121 -4949 4950 0
-4950 -122 178 0
178 -4950 4951 0
-122 -4950 4951 0
-4951 180 -13 0
-13 -4951 4952 0
180 -4951 4952 0
-4952 126 -175 0
-175 -4952 4953 0
126 -4952 4953 0
-4953 179 -14 0
-14 -4953 4954 0
179 -4953 4954 0
-4954 -17 140 0
140 -4954 4955 0
-17 -4954 4955 0
-4955 -18 139 0
139 -4955 4956 0
-18 -4955 4956 0
-4956 125 -176 0
-176 -4956 4957 0
125 -4956 4957 0
-4957 162 -158 0
-158 -4957 4958 0
162 -4957 4958 0
-4958 161 -157 0
-157 -4958 4959 0
161 -4958 4959 0
-4959 176 -15 0
-15 -4959 4960 0
176 -4959 4960 0
-4960 175 -16 0
-16 -4960 4961 0
175 -4960 4961 0
-4961 -153 161 0
161 -4961 4962 0
-153 -4961 4962 0
-4962 -154 162 0
162 -4962 4963 0
-154 -4962 4963 0
-4963 -5 132 0
132 -4963 4964 0
-5 -4963 4964 0
-4964 -6 131 0
131 -4964 4965 0
-6 -4964 4965 0
-4965 -115 169 0
169 -4965 4966 0
-115 -4965 4966 0
-4966 -116 170 0
170 -4966 4967 0
-116 -4966 4967 0
-4967 -113 167 0
167 -4967 4968 0
-113 -4967 4968 0
-4968 -114 168 0
168 -4968 4969 0
-114 -4968 4969 0
-4969 4 -136 0
-136 -4969 4970 0
4 -4969 4970 0
-4970 3 -135 0
-135 -4970 4971 0
3 -4970 4971 0
-4971 -163 1 0
1 -4971 4972 0
-163 -4971 4972 0
-4972 166 -10 0
-10 -4972 4973 0
166 -4972 4973 0
-4973 165 -9 0
-9 -4973 4974 0
165 -4973 4974 0
-4974 164 -2 0
-2 -4974 4975 0
164 -4974 4975 0
-4975 -167 6 0
6 -4975 4976 0
-167 -4975 4976 0
-4976 -109 163 0
163 -4976 4977 0
-109 -4976 4977 0
-4977 -110 164 0
164 -4977 4978 0
-110 -4977 4978 0
-4978 -168 5 0
5 -4978 4979 0
-168 -4978 4979 0
-4979 158 -159 0
-159 -4979 4980 0
158 -4979 4980 0
-4980 157 -160 0
-160 -4980 4981 0
157 -4980 4981 0
-4981 72 -32 0
-32 -4981 4982 0
72 -4981 4982 0
-4982 112 -171 0
-171 -4982 4983 0
112 -4982 4983 0
-4983 111 -172 0
-172 -4983 4984 0
111 -4983 4984 0
-4984 71 -31 0
-31 -4984 4985 0
71 -4984 4985 0
-4985 7 -133 0
-133 -4985 4986 0
7 -4985 4986 0
-4986 8 -134 0
-134 -4986 4987 0
8 -4986 4987 0
-4987 -169 7 0
7 -4987 4988 0
-169 -4987 4988 0
-4988 -83 102 0
102 -4988 4989 0
-83 -4988 4989 0
-4989 -170 8 0
8 -4989 4990 0
-170 -4989 4990 0
-4990 84 -101 0
-101 -4990 4991 0
84 -4990 4991 0
-4991 -57 28 0
28 -4991 4992 0
-57 -4991 4992 0
-4992 -58 27 0
27 -4992 4993 0
-58 -4992 4993 0
-4993 117 -180 0
-180 -4993 4994 0
117 -4993 4994 0
-4994 -73 92 0
92 -4994 4995 0
-73 -4994 4995 0
-4995 74 -91 0
-91 -4995 4996 0
74 -4995 4996 0
-4996 56 -19 0
-19 -4996 4997 0
56 -4996 4997 0
-4997 55 -20 0
-20 -4997 4998 0
55 -4997 4998 0
-4998 172 -17 0
-17 -4998 4999 0
172 -4998 4999 0
-4999 171 -18 0
-18 -4999 5000 0
171 -4999 5000 0
-5000 118 -179 0
-179 -5000 5001 0
118 -5000 5001 0
-5001 -91 55 0
55 -5001 5002 0
-91 -5001 5002 0
-5002 92 -56 0
-56 -5002 5003 0
92 -5002 5003 0
-5003 12 -137 0
-137 -5003 5004 0
12 -5003 5004 0
-5004 -11 138 0
138 -5004 5005 0
-11 -5004 5005 0
-5005 80 -98 0
-98 -5005 5006 0
80 -5005 5006 0
-5006 79 -97 0
-97 -5006 5007 0
79 -5006 5007 0
-5007 173 -12 0
-12 -5007 5008 0
173 -5007 5008 0
-5008 -174 11 0
11 -5008 5009 0
-174 -5008 5009 0
-5009 -75 99 0
99 -5009 5010 0
-75 -5009 5010 0
-5010 -76 100 0
100 -5010 5011 0
-76 -5010 5011 0
-5011 -77 96 0
96 -5011 5012 0
-77 -5011 5012 0
-5012 -78 95 0
95 -5012 5013 0
-78 -5012 5013 0
-5013 66 -30 0
-30 -5013 5014 0
66 -5013 5014 0
-5014 -63 35 0
35 -5014 5015 0
-63 -5014 5015 0
-5015 -64 36 0
36 -5015 5016 0
-64 -5015 5016 0
-5016 -65 29 0
29 -5016 5017 0
-65 -5016 5017 0
-5017 22 -118 0
-118 -5017 5018 0
22 -5017 5018 0
-5018 21 -117 0
-117 -5018 5019 0
21 -5018 5019 0
-5019 -85 105 0
105 -5019 5020 0
-85 -5019 5020 0
-5020 -86 106 0
106 -5020 5021 0
-86 -5020 5021 0
-5021 -119 174 0
174 -5021 5022 0
-119 -5021 5022 0
-5022 -120 173 0
173 -5022 5023 0
-120 -5022 5023 0
-5023 62 -26 0
-26 -5023 5024 0
62 -5023 5024 0
-5024 61 -25 0
-25 -5024 5025 0
61 -5024 5025 0
-5025 60 -24 0
-24 -5025 5026 0
60 -5025 5026 0
-5026 59 -23 0
-23 -5026 5027 0
59 -5026 5027 0
-5027 34 -112 0
-112 -5027 5028 0
34 -5027 5028 0
-5028 33 -111 0
-111 -5028 5029 0
33 -5028 5029 0
-5029 28 -125 0
-125 -5029 5030 0
28 -5029 5030 0
-5030 27 -126 0
-126 -5030 5031 0
27 -5030 5031 0
-5031 20 -110 0
-110 -5031 5032 0
20 -5031 5032 0
-5032 19 -109 0
-109 -5032 5033 0
19 -5032 5033 0
-5033 -99 71 0
71 -5033 5034 0
-99 -5033 5034 0
-5034 -100 72 0
72 -5034 5035 0
-100 -5034 5035 0
-5035 108 -67 0
-67 -5035 5036 0
108 -5035 5036 0
-5036 107 -68 0
-68 -5036 5037 0
107 -5036 5037 0
-5037 -103 69 0
69 -5037 5038 0
-103 -5037 5038 0
-5038 -104 70 0
70 -5038 5039 0
-104 -5038 5039 0
-5039 -105 57 0
57 -5039 5040 0
-105 -5039 5040 0
-5040 -106 58 0
58 -5040 5041 0
-106 -5040 5041 0
-5041 -98 61 0
61 -5041 5042 0
-98 -5041 5042 0
-5042 -9 144 0
144 -5042 5043 0
-9 -5042 5043 0
-5043 -10 143 0
143 -5043 5044 0
-10 -5043 5044 0
-5044 97 -62 0
-62 -5044 5045 0
97 -5044 5045 0
-5045 -89 103 0
103 -5045 5046 0
-89 -5045 5046 0
-5046 -90 104 0
104 -5046 5047 0
-90 -5046 5047 0
-5047 94 -63 0
-63 -5047 5048 0
94 -5047 5048 0
-5048 93 -64 0
-64 -5048 5049 0
93 -5048 5049 0
-5049 -15 130 0
130 -5049 5050 0
-15 -5049 5050 0
-5050 -16 129 0
129 -5050 5051 0
-16 -5050 5051 0
-5051 -29 120 0
120 -5051 5052 0
-29 -5051 5052 0
-5052 -30 119 0
119 -5052 5053 0
-30 -5052 5053 0
-5053 -31 123 0
123 -5053 5054 0
-31 -5053 5054 0
-5054 -32 124 0
124 -5054 5055 0
-32 -5054 5055 0
-5055 -35 122 0
122 -5055 5056 0
-35 -5055 5056 0
-5056 -36 121 0
121 -5056 5057 0
-36 -5056 5057 0
-5057 160 -148 0
-148 -5057 5058 0
160 -5057 5058 0
-5058 159 -147 0
-147 -5058 5059 0
159 -5058 5059 0
-5059 -45 90 0
90 -5059 5060 0
-45 -5059 5060 0
-5060 -46 89 0
89 -5060 5061 0
-46 -5060 5061 0
-5061 -102 65 0
65 -5061 5062 0
-102 -5061 5062 0
-5062 101 -66 0
-66 -5062 5063 0
101 -5062 5063 0
-5063 144 -49 0
-49 -5063 5064 0
144 -5063 5064 0
-5064 143 -50 0
-50 -5064 5065 0
143 -5064 5065 0
-5065 -131 42 0
42 -5065 5066 0
-131 -5065 5066 0
-5066 -132 41 0
41 -5066 5067 0
-132 -5066 5067 0
-5067 -67 34 0
34 -5067 5068 0
-67 -5067 5068 0
-5068 -95 59 0
59 -5068 5069 0
-95 -5068 5069 0
-5069 178 -3 0
-3 -5069 5070 0
178 -5069 5070 0
-5070 177 -4 0
-4 -5070 5071 0
177 -5070 5071 0
-5071 -96 60 0
60 -5071 5072 0
-96 -5071 5072 0
-5072 68 -33 0
-33 -5072 5073 0
68 -5072 5073 0
-5073 -123 165 0
165 -5073 5074 0
-123 -5073 5074 0
-5074 133 -43 0
-43 -5074 5075 0
133 -5074 5075 0
-5075 -134 44 0
44 -5075 5076 0
-134 -5075 5076 0
-5076 -124 166 0
166 -5076 5077 0
-124 -5076 5077 0
-5077 38 -74 0
-74 -5077 5078 0
38 -5077 5078 0
-5078 -23 113 0
113 -5078 5079 0
-23 -5078 5079 0
-5079 37 -73 0
-73 -5079 5080 0
37 -5079 5080 0
-5080 -43 80 0
80 -5080 5081 0
-43 -5080 5081 0
-5081 69 -22 0
-22 -5081 5082 0
69 -5081 5082 0
-5082 -70 21 0
21 -5082 5083 0
-70 -5082 5083 0
-5083 -24 114 0
114 -5083 5084 0
-24 -5083 5084 0
-5084 -25 115 0
115 -5084 5085 0
-25 -5084 5085 0
-5085 -81 108 0
108 -5085 5086 0
-81 -5085 5086 0
-5086 -44 79 0
79 -5086 5087 0
-44 -5086 5087 0
-5087 -26 116 0
116 -5087 5088 0
-26 -5087 5088 0
-5088 -82 107 0
107 -5088 5089 0
-82 -5088 5089 0
-5089 -87 94 0
94 -5089 5090 0
-87 -5089 5090 0
-5090 -88 93 0
93 -5090 5091 0
-88 -5090 5091 0
-5091 136 -53 0
-53 -5091 5092 0
136 -5091 5092 0
-5092 -135 54 0
54 -5092 5093 0
-135 -5092 5093 0
-5093 52 -76 0
-76 -5093 5094 0
52 -5093 5094 0
-5094 -127 38 0
38 -5094 5095 0
-127 -5094 5095 0
-5095 -128 37 0
37 -5095 5096 0
-128 -5095 5096 0
-5096 42 -78 0
-78 -5096 5097 0
42 -5096 5097 0
-5097 41 -77 0
-77 -5097 5098 0
41 -5097 5098 0
-5098 51 -75 0
-75 -5098 5099 0
51 -5098 5099 0
-5099 -39 82 0
82 -5099 5100 0
-39 -5099 5100 0
-5100 -40 81 0
81 -5100 5101 0
-40 -5100 5101 0
-5101 -139 51 0
51 -5101 5102 0
-139 -5101 5102 0
-5102 -140 52 0
52 -5102 5103 0
-140 -5102 5103 0
-5103 142 -40 0
5104 0
156 -159 0
-159 -5104 5105 0
156 -5104 5105 0
-5105 155 -160 0
-160 -5105 5106 0
155 -5105 5106 0
-5106 72 -144 0
-144 -5106 5107 0
72 -5106 5107 0
-5107 71 -143 0
-143 -5107 5108 0
71 -5107 5108 0
-5108 -83 33 0
33 -5108 5109 0
-83 -5108 5109 0
-5109 84 -34 0
-34 -5109 5110 0
84 -5109 5110 0
-5110 -57 129 0
129 -5110 5111 0
-57 -5110 5111 0
-5111 -58 130 0
130 -5111 5112 0
-58 -5111 5112 0
-5112 -73 19 0
19 -5112 5113 0
-73 -5112 5113 0
-5113 74 -20 0
-20 -5113 5114 0
74 -5113 5114 0
-5114 56 -128 0
-128 -5114 5115 0
56 -5114 5115 0
-5115 55 -127 0
-127 -5115 5116 0
55 -5115 5116 0
-5116 -91 37 0
37 -5116 5117 0
-91 -5116 5117 0
-5117 92 -38 0
-38 -5117 5118 0
92 -5117 5118 0
-5118 12 -15 0
-15 -5118 5119 0
12 -5118 5119 0
-5119 -11 16 0
16 -5119 5120 0
-11 -5119 5120 0
-5120 80 -25 0
-25 -5120 5121 0
80 -5120 5121 0
-5121 79 -26 0
-26 -5121 5122 0
79 -5121 5122 0
-5122 173 -178 0
-178 -5122 5123 0
173 -5122 5123 0
-5123 -174 177 0
177 -5123 5124 0
-174 -5123 5124 0
-5124 -75 22 0
22 -5124 5125 0
-75 -5124 5125 0
-5125 -76 21 0
21 -5125 5126 0
-76 -5125 5126 0
-5126 -77 24 0
24 -5126 5127 0
-77 -5126 5127 0
-5127 -78 23 0
23 -5127 5128 0
-78 -5127 5128 0
-5128 66 -142 0
-142 -5128 5129 0
66 -5128 5129 0
-5129 -63 135 0
135 -5129 5130 0
-63 -5129 5130 0
-5130 -64 136 0
136 -5130 5131 0
-64 -5130 5131 0
-5131 -65 141 0
141 -5131 5132 0
-65 -5131 5132 0
-5132 22 -75 0
-75 -5132 5133 0
22 -5132 5133 0
-5133 21 -76 0
-76 -5133 5134 0
21 -5133 5134 0
-5134 -85 32 0
32 -5134 5135 0
-85 -5134 5135 0
-5135 -86 31 0
31 -5135 5136 0
-86 -5135 5136 0
-5136 -119 124 0
124 -5136 5137 0
-119 -5136 5137 0
-5137 -120 123 0
123 -5137 5138 0
-120 -5137 5138 0
-5138 62 -133 0
-133 -5138 5139 0
62 -5138 5139 0
-5139 61 -134 0
-134 -5139 5140 0
61 -5139 5140 0
-5140 60 -132 0
-132 -5140 5141 0
60 -5140 5141 0
-5141 59 -131 0
-131 -5141 5142 0
59 -5141 5142 0
-5142 34 -84 0
-84 -5142 5143 0
34 -5142 5143 0
-5143 33 -83 0
-83 -5143 5144 0
33 -5143 5144 0
-5144 28 -81 0
-81 -5144 5145 0
28 -5144 5145 0
-5145 27 -82 0
-82 -5145 5146 0
27 -5145 5146 0
-5146 20 -73 0
-73 -5146 5147 0
20 -5146 5147 0
-5147 19 -74 0
-74 -5147 5148 0
19 -5147 5148 0
-5148 -99 45 0
45 -5148 5149 0
-99 -5148 5149 0
-5149 -100 46 0
46 -5149 5150 0
-100 -5149 5150 0
-5150 108 -53 0
-53 -5150 5151 0
108 -5150 5151 0
-5151 107 -54 0
-54 -5151 5152 0
107 -5151 5152 0
-5152 -103 50 0
50 -5152 5153 0
-103 -5152 5153 0
-5153 -104 49 0
49 -5153 5154 0
-104 -5153 5154 0
-5154 -105 47 0
47 -5154 5155 0
-105 -5154 5155 0
-5155 -106 48 0
48 -5155 5156 0
-106 -5155 5156 0
-5156 -98 43 0
43 -5156 5157 0
-98 -5156 5157 0
-5157 97 -44 0
-44 -5157 5158 0
97 -5157 5158 0
-5158 -89 36 0
36 -5158 5159 0
-89 -5158 5159 0
-5159 -90 35 0
35 -5159 5160 0
-90 -5159 5160 0
-5160 94 -39 0
-39 -5160 5161 0
94 -5160 5161 0
-5161 93 -40 0
-40 -5161 5162 0
93 -5161 5162 0
-5162 -15 11 0
11 -5162 5163 0
-15 -5162 5163 0
-5163 -16 12 0
12 -5163 5164 0
-16 -5163 5164 0
-5164 -29 88 0
88 -5164 5165 0
-29 -5164 5165 0
-5165 -30 87 0
87 -5165 5166 0
-30 -5165 5166 0
-5166 -31 85 0
85 -5166 5167 0
-31 -5166 5167 0
-5167 -32 86 0
86 -5167 5168 0
-32 -5167 5168 0
-5168 -35 90 0
90 -5168 5169 0
-35 -5168 5169 0
-5169 -36 89 0
89 -5169 5170 0
-36 -5169 5170 0
-5170 160 -155 0
-155 -5170 5171 0
160 -5170 5171 0
-5171 159 -156 0
-156 -5171 5172 0
159 -5171 5172 0
-5172 -45 99 0
99 -5172 5173 0
-45 -5172 5173 0
-5173 -46 100 0
5174 0
147 -9 0
-9 -5174 5175 0
147 -5174 5175 0
-5175 -148 10 0
10 -5175 5176 0
-148 -5175 5176 0
-5176 152 -11 0
-11 -5176 5177 0
152 -5176 5177 0
-5177 -146 14 0
14 -5177 5178 0
-146 -5177 5178 0
-5178 -151 12 0
12 -5178 5179 0
-151 -5178 5179 0
-5179 145 -13 0
-13 -5179 5180 0
145 -5179 5180 0
-5180 -149 2 0
2 -5180 5181 0
-149 -5180 5181 0
-5181 -1 85 0
85 -5181 5182 0
-1 -5181 5182 0
-5182 -150 1 0
1 -5182 5183 0
-150 -5182 5183 0
-5183 2 -86 0
-86 -5183 5184 0
2 -5183 5184 0
-5184 14 -80 0
-80 -5184 5185 0
14 -5184 5185 0
-5185 13 -79 0
-79 -5185 5186 0
13 -5185 5186 0
-5186 -121 115 0
115 -5186 5187 0
-121 -5186 5187 0
-5187 -122 116 0
116 -5187 5188 0
-122 -5187 5188 0
-5188 180 -33 0
-33 -5188 5189 0
180 -5188 5189 0
-5189 126 -123 0
-123 -5189 5190 0
126 -5189 5190 0
-5190 179 -34 0
-34 -5190 5191 0
179 -5190 5191 0
-5191 -17 87 0
87 -5191 5192 0
-17 -5191 5192 0
-5192 -18 88 0
88 -5192 5193 0
-18 -5192 5193 0
-5193 125 -124 0
-124 -5193 5194 0
125 -5193 5194 0
-5194 162 -15 0
-15 -5194 5195 0
162 -5194 5195 0
-5195 161 -16 0
-16 -5195 5196 0
161 -5195 5196 0
-5196 156 -3 0
-3 -5196 5197 0
156 -5196 5197 0
-5197 176 -26 0
-26 -5197 5198 0
176 -5197 5198 0
-5198 175 -25 0
-25 -5198 5199 0
175 -5198 5199 0
-5199 155 -4 0
-4 -5199 5200 0
155 -5199 5200 0
-5200 -153 17 0
17 -5200 5201 0
-153 -5200 5201 0
-5201 -154 18 0
18 -5201 5202 0
-154 -5201 5202 0
-5202 -5 74 0
74 -5202 5203 0
-5 -5202 5203 0
-5203 -6 73 0
73 -5203 5204 0
-6 -5203 5204 0
-5204 -115 119 0
119 -5204 5205 0
-115 -5204 5205 0
-5205 -116 120 0
120 -5205 5206 0
-116 -5205 5206 0
-5206 -113 109 0
109 -5206 5207 0
-113 -5206 5207 0
-5207 -114 110 0
110 -5207 5208 0
-114 -5207 5208 0
-5208 4 -82 0
-82 -5208 5209 0
4 -5208 5209 0
-5209 3 -81 0
-81 -5209 5210 0
3 -5209 5210 0
-5210 -163 32 0
32 -5210 5211 0
-163 -5210 5211 0
-5211 166 -28 0
-28 -5211 5212 0
166 -5211 5212 0
-5212 165 -27 0
-27 -5212 5213 0
165 -5212 5213 0
-5213 164 -31 0
-31 -5213 5214 0
164 -5213 5214 0
-5214 -167 19 0
19 -5214 5215 0
-167 -5214 5215 0
-5215 -109 122 0
122 -5215 5216 0
-109 -5215 5216 0
-5216 -110 121 0
121 -5216 5217 0
-110 -5216 5217 0
-5217 -168 20 0
20 -5217 5218 0
-168 -5217 5218 0
-5218 158 -7 0
-7 -5218 5219 0
158 -5218 5219 0
-5219 157 -8 0
-8 -5219 5220 0
157 -5219 5220 0
-5220 72 -51 0
-51 -5220 5221 0
72 -5220 5221 0
-5221 112 -118 0
-118 -5221 5222 0
112 -5221 5222 0
-5222 111 -117 0
-117 -5222 5223 0
111 -5222 5223 0
-5223 71 -52 0
-52 -5223 5224 0
71 -5223 5224 0
-5224 7 -84 0
-84 -5224 5225 0
7 -5224 5225 0
-5225 8 -83 0
-83 -5225 5226 0
8 -5225 5226 0
-5226 -169 29 0
29 -5226 5227 0
-169 -5226 5227 0
-5227 -83 94 0
94 -5227 5228 0
-83 -5227 5228 0
-5228 -170 30 0
30 -5228 5229 0
-170 -5228 5229 0
-5229 84 -93 0
-93 -5229 5230 0
84 -5229 5230 0
-5230 -57 46 0
46 -5230 5231 0
-57 -5230 5231 0
-5231 -58 45 0
45 -5231 5232 0
-58 -5231 5232 0
-5232 117 -126 0
-126 -5232 5233 0
117 -5232 5233 0
-5233 -73 104 0
104 -5233 5234 0
-73 -5233 5234 0
-5234 74 -103 0
-103 -5234 5235 0
74 -5234 5235 0
-5235 56 -50 0
-50 -5235 5236 0
56 -5235 5236 0
-5236 55 -49 0
-49 -5236 5237 0
55 -5236 5237 0
-5237 172 -35 0
-35 -5237 5238 0
172 -5237 5238 0
-5238 171 -36 0
-36 -5238 5239 0
171 -5238 5239 0
-5239 118 -125 0
-125 -5239 5240 0
118 -5239 5240 0
-5240 -91 67 0
67 -5240 5241 0
-91 -5240 5241 0
-5241 92 -68 0
-68 -5241 5242 0
92 -5241 5242 0
-5242 12 -75 0
-75 -5242 5243 0
12 -5242 5243 0
-5243 -11 76 0
76 -5243 5244 0
-11 -5243 5244 0
-5244 80 -101 0
-101 -5244 5245 0
80 -5244 5245 0
-5245 79 -102 0
-102 -5245 5246 0
79 -5245 5246 0
-5246 173 -22 0
-22 -5246 5247 0
173 -5246 5247 0
-5247 -174 21 0
21 -5247 5248 0
-174 -5247 5248 0
-5248 -75 100 0
100 -5248 5249 0
-75 -5248 5249 0
-5249 -76 99 0
99 -5249 5250 0
-76 -5249 5250 0
-5250 -77 91 0
91 -5250 5251 0
-77 -5250 5251 0
-5251 -78 92 0
92 -5251 5252 0
-78 -5251 5252 0
-5252 66 -40 0
-40 -5252 5253 0
66 -5252 5253 0
-5253 -63 54 0
54 -5253 5254 0
-63 -5253 5254 0
-5254 -64 53 0
53 -5254 5255 0
-64 -5254 5255 0
-5255 -65 39 0
39 -5255 5256 0
-65 -5255 5256 0
-5256 22 -154 0
-154 -5256 5257 0
22 -5256 5257 0
-5257 21 -153 0
-153 -5257 5258 0
21 -5257 5258 0
-5258 -85 98 0
98 -5258 5259 0
-85 -5258 5259 0
-5259 -86 97 0
97 -5259 5260 0
-86 -5259 5260 0
-5260 -119 111 0
111 -5260 5261 0
-119 -5260 5261 0
-5261 -120 112 0
112 -5261 5262 0
-120 -5261 5262 0
-5262 62 -47 0
-47 -5262 5263 0
62 -5262 5263 0
-5263 61 -48 0
-48 -5263 5264 0
61 -5263 5264 0
-5264 60 -37 0
-37 -5264 5265 0
60 -5264 5265 0
-5265 59 -38 0
-38 -5265 5266 0
59 -5265 5266 0
-5266 34 -149 0
-149 -5266 5267 0
34 -5266 5267 0
-5267 33 -150 0
-150 -5267 5268 0
33 -5267 5268 0
-5268 28 -161 0
-161 -5268 5269 0
28 -5268 5269 0
-5269 27 -162 0
-162 -5269 5270 0
27 -5269 5270 0
-5270 20 -158 0
-158 -5270 5271 0
20 -5270 5271 0
-5271 19 -157 0
-157 -5271 5272 0
19 -5271 5272 0
-5272 -99 71 0
71 -5272 5273 0
-99 -5272 5273 0
-5273 -100 72 0
72 -5273 5274 0
-100 -5273 5274 0
-5274 108 -70 0
-70 -5274 5275 0
108 -5274 5275 0
-5275 107 -69 0
-69 -5275 5276 0
107 -5275 5276 0
-5276 -103 62 0
62 -5276 5277 0
-103 -5276 5277 0
-5277 -104 61 0
61 -5277 5278 0
-104 -5277 5278 0
-5278 -105 60 0
60 -5278 5279 0
-105 -5278 5279 0
-5279 -106 59 0
59 -5279 5280 0
-106 -5279 5280 0
-5280 -98 66 0
66 -5280 5281 0
-98 -5280 5281 0
-5281 -9 90 0
90 -5281 5282 0
-9 -5281 5282 0
-5282 -10 89 0
89 -5282 5283 0
-10 -5282 5283 0
-5283 97 -65 0
-65 -5283 5284 0
97 -5283 5284 0
-5284 -89 106 0
106 -5284 5285 0
-89 -5284 5285 0
-5285 -90 105 0
105 -5285 5286 0
-90 -5285 5286 0
-5286 94 -64 0
-64 -5286 5287 0
94 -5286 5287 0
-5287 93 -63 0
-63 -5287 5288 0
93 -5287 5288 0
-5288 -15 77 0
77 -5288 5289 0
-15 -5288 5289 0
-5289 -16 78 0
78 -5289 5290 0
-16 -5289 5290 0
-5290 -29 148 0
148 -5290 5291 0
-29 -5290 5291 0
-5291 -30 147 0
147 -5291 5292 0
-30 -5291 5292 0
-5292 -31 152 0
152 -5292 5293 0
-31 -5292 5293 0
-5293 -32 151 0
151 -5293 5294 0
-32 -5293 5294 0
-5294 -35 160 0
160 -5294 5295 0
-35 -5294 5295 0
-5295 -36 159 0
159 -5295 5296 0
-36 -5295 5296 0
-5296 160 -6 0
-6 -5296 5297 0
160 -5296 5297 0
-5297 159 -5 0
-5 -5297 5298 0
159 -5297 5298 0
-5298 -45 143 0
143 -5298 5299 0
-45 -5298 5299 0
-5299 -46 144 0
144 -5299 5300 0
-46 -5299 5300 0
-5300 -102 58 0
58 -5300 5301 0
-102 -5300 5301 0
-5301 101 -57 0
-57 -5301 5302 0
101 -5301 5302 0
-5302 144 -178 0
-178 -5302 5303 0
144 -5302 5303 0
-5303 143 -177 0
-177 -5303 5304 0
143 -5303 5304 0
-5304 -131 163 0
163 -5304 5305 0
-131 -5304 5305 0
-5305 -132 164 0
164 -5305 5306 0
-132 -5305 5306 0
-5306 -67 44 0
44 -5306 5307 0
-67 -5306 5307 0
-5307 -95 55 0
55 -5307 5308 0
-95 -5307 5308 0
-5308 178 -23 0
-23 -5308 5309 0
178 -5308 5309 0
-5309 177 -24 0
-24 -5309 5310 0
177 -5309 5310 0
-5310 -96 56 0
56 -5310 5311 0
-96 -5310 5311 0
-5311 68 -43 0
-43 -5311 5312 0
68 -5311 5312 0
-5312 -123 114 0
114 -5312 5313 0
-123 -5312 5313 0
-5313 133 -174 0
-174 -5313 5314 0
133 -5313 5314 0
-5314 -134 173 0
173 -5314 5315 0
-134 -5314 5315 0
-5315 -124 113 0
113 -5315 5316 0
-124 -5315 5316 0
-5316 38 -139 0
-139 -5316 5317 0
38 -5316 5317 0
-5317 -23 146 0
146 -5317 5318 0
-23 -5317 5318 0
-5318 37 -140 0
-140 -5318 5319 0
37 -5318 5319 0
-5319 -43 138 0
138 -5319 5320 0
-43 -5319 5320 0
-5320 69 -41 0
-41 -5320 5321 0
69 -5320 5321 0
-5321 -70 42 0
42 -5321 5322 0
-70 -5321 5322 0
-5322 -24 145 0
145 -5322 5323 0
-24 -5322 5323 0
-5323 -25 155 0
155 -5323 5324 0
-25 -5323 5324 0
-5324 -81 108 0
108 -5324 5325 0
-81 -5324 5325 0
-5325 -44 137 0
137 -5325 5326 0
-44 -5325 5326 0
-5326 -26 156 0
156 -5326 5327 0
-26 -5326 5327 0
-5327 -82 107 0
107 -5327 5328 0
-82 -5327 5328 0
-5328 -87 95 0
95 -5328 5329 0
-87 -5328 5329 0
-5329 -88 96 0
96 -5329 5330 0
-88 -5329 5330 0
-5330 136 -179 0
-179 -5330 5331 0
136 -5330 5331 0
-5331 -135 180 0
180 -5331 5332 0
-135 -5331 5332 0
-5332 52 -131 0
-131 -5332 5333 0
52 -5332 5333 0
-5333 -127 175 0
175 -5333 5334 0
-127 -5333 5334 0
-5334 -128 176 0
176 -5334 5335 0
-128 -5334 5335 0
-5335 42 -127 0
5336 0
-169 170 0
5337 0
-130 129 0
5338 0
-43 44 0
5339 0
69 -70 0
5340 0
137 -138 0
5341 0
-85 86 0
5342 0
94 -93 0
5343 0
-77 78 0
5344 0
-35 36 0
5345 0
160 -159 0
5346 0
-15 16 0
5347 0
-103 104 0
5348 0
48 -47 0
5349 0
-85 86 0
5350 0
-89 90 0
5351 0
20 -19 0
5352 0
-139 140 0
5353 0
-25 26 0
5354 0
112 -111 0
5355 0
-25 26 0
5356 0
160 -159 0
5357 0
-98 97 0
5358 0
12 -11 0
5359 0
142 -141 0
5360 0
156 -155 0
5361 0
-73 74 0
5362 0
-25 26 0
5363 0
-9 10 0
5364 0
69 -70 0
5365 0
-23 24 0
5366 0
158 -157 0
5367 0
-163 164 0
5368 0
38 -37 0
5369 0
-153 154 0
5370 0
112 -111 0
5371 0
20 -19 0
5372 0
176 -175 0
5373 0
-89 90 0
5374 0
-39 40 0
5375 0
-5 6 0
5376 0
-85 86 0
5377 0
-153 154 0
5378 0
-83 84 0
5379 0
-63 64 0
5380 0
-167 168 0
5381 0
156 -155 0
5382 0
137 -138 0
5383 0
136 -135 0
5384 0
-167 168 0
5385 0
-39 40 0
5386 0
-75 76 0
5387 0
-127 128 0
5388 0
-5 6 0
5389 0
-123 124 0
5390 0
173 -174 0
5391 0
142 -141 0
5392 0
158 -157 0
5393 0
162 -161 0
5394 0
147 -148 0
5395 0
52 -51 0
5396 0
-81 82 0
5397 0
80 -79 0
5398 0
144 -143 0
5399 0
38 -37 0
5400 0
-75 76 0
5401 0
48 -47 0
5402 0
117 -118 0
5403 0
-49 50 0
5404 0
-113 114 0
5405 0
94 -93 0
5406 0
52 -51 0
5407 0
-1 2 0
5408 0
142 -141 0
5409 0
-130 129 0
5410 0
-169 170 0
5411 0
-31 32 0
5412 0
166 -165 0
5413 0
160 -159 0
5414 0
-109 110 0
5415 0
-73 74 0
5416 0
112 -111 0
5417 0
-131 132 0
5418 0
7 -8 0
5419 0
-87 88 0
5420 0
-103 104 0
5421 0
-119 120 0
5422 0
180 -179 0
5423 0
152 -151 0
5424 0
-123 124 0
5425 0
-9 10 0
5426 0
-49 50 0
5427 0
108 -107 0
5428 0
-1 2 0
5429 0
-25 26 0
5430 0
-87 88 0
5431 0
69 -70 0
5432 0
-35 36 0
5433 0
-17 18 0
5434 0
152 -151 0
5435 0
152 -151 0
5436 0
-102 101 0
5437 0
48 -47 0
5438 0
62 -61 0
5439 0
69 -70 0
5440 0
7 -8 0
5441 0
158 -157 0
5442 0
-98 97 0
5443 0
-130 129 0
5444 0
-87 88 0
5445 0
-89 90 0
5446 0
-87 88 0
5447 0
72 -71 0
5448 0
56 -55 0
5449 0
137 -138 0
5450 0
28 -27 0
5451 0
-35 36 0
5452 0
152 -151 0
5453 0
-49 50 0
5454 0
-102 101 0
5455 0
-139 140 0
5456 0
42 -41 0
5457 0
-149 150 0
5458 0
173 -174 0
5459 0
-83 84 0
5460 0
52 -51 0
5461 0
28 -27 0
5462 0
-49 50 0
5463 0
28 -27 0
5464 0
-167 168 0
5465 0
-29 30 0
5466 0
-49 50 0
5467 0
142 -141 0
5468 0
-75 76 0
5469 0
-89 90 0
5470 0
-39 40 0
5471 0
52 -51 0
5472 0
-83 84 0
5473 0
-5 6 0
5474 0
147 -148 0
5475 0
-77 78 0
5476 0
-89 90 0
5477 0
-43 44 0
5478 0
-9 10 0
5479 0
-81 82 0
5480 0
-75 76 0
5481 0
-77 78 0
5482 0
34 -33 0
5483 0
-91 92 0
5484 0
-169 170 0
5485 0
-9 10 0
5486 0
156 -155 0
5487 0
162 -161 0
5488 0
180 -179 0
5489 0
-95 96 0
5490 0
-25 26 0
5491 0
144 -143 0
5492 0
34 -33 0
5493 0
147 -148 0
5494 0
-109 110 0
5495 0
142 -141 0
5496 0
156 -155 0
5497 0
147 -148 0
5498 0
-119 120 0
5499 0
-81 82 0
5500 0
173 -174 0
5501 0
4 -3 0
5502 0
-45 46 0
5503 0
178 -177 0
5504 0
4 -3 0
5505 0
-95 96 0
5506 0
-139 140 0
5507 0
54 -53 0
5508 0
62 -61 0
5509 0
-23 24 0
5510 0
-123 124 0
5511 0
-130 129 0
5512 0
-102 101 0
5513 0
-149 150 0
5514 0
69 -70 0
5515 0
-9 10 0
5516 0
-167 168 0
5517 0
7 -8 0
5518 0
133 -134 0
5519 0
-67 68 0
5520 0
-169 170 0
5521 0
-49 50 0
5522 0
117 -118 0
5523 0
144 -143 0
5524 0
-127 128 0
5525 0
60 -59 0
5526 0
-127 128 0
5527 0
-149 150 0
5528 0
94 -93 0
5529 0
14 -13 0
5530 0
-49 50 0
5531 0
66 -65 0
5532 0
180 -179 0
5533 0
160 -159 0
5534 0
42 -41 0
5535 0
-63 64 0
5536 0
-131 132 0
5537 0
-119 120 0
5538 0
166 -165 0
5539 0
-81 82 0
5540 0
-163 164 0
5541 0
-17 18 0
5542 0
12 -11 0
5543 0
-139 140 0
5544 0
56 -55 0
5545 0
156 -155 0
5546 0
-109 110 0
5547 0
-153 154 0
5548 0
-25 26 0
5549 0
-105 106 0
5550 0
-23 24 0
5551 0
-167 168 0
5552 0
-115 116 0
5553 0
136 -135 0
5554 0
80 -79 0
5555 0
-139 140 0
5556 0
176 -175 0
5557 0
-109 110 0
5558 0
-67 68 0
5559 0
94 -93 0
5560 0
-149 150 0
5561 0
-146 145 0
5562 0
60 -59 0
5563 0
172 -171 0
5564 0
-146 145 0
5565 0
162 -161 0
5566 0
66 -65 0
5567 0
52 -51 0
5568 0
-31 32 0
5569 0
54 -53 0
5570 0
-81 82 0
5571 0
-87 88 0
5572 0
-146 145 0
5573 0
-35 36 0
5574 0
66 -65 0
5575 0
-29 30 0
5576 0
-102 101 0
5577 0
69 -70 0
5578 0
-9 10 0
5579 0
62 -61 0
5580 0
-9 10 0
5581 0
-163 164 0
5582 0
-146 145 0
5583 0
117 -118 0
5584 0
176 -175 0
5585 0
-15 16 0
5586 0
-95 96 0
5587 0
117 -118 0
5588 0
-81 82 0
5589 0
-102 101 0
5590 0
158 -157 0
5591 0
-81 82 0
5592 0
-149 150 0
5593 0
-123 124 0
5594 0
54 -53 0
5595 0
80 -79 0
5596 0
20 -19 0
5597 0
-146 145 0
5598 0
-99 100 0
5599 0
-67 68 0
5600 0
-75 76 0
5601 0
166 -165 0
5602 0
-45 46 0
5603 0
4 -3 0
5604 0
14 -13 0
5605 0
-17 18 0
5606 0
-85 86 0
5607 0
133 -134 0
5608 0
-89 90 0
5609 0
-121 122 0
5610 0
158 -157 0
5611 0
-87 88 0
5612 0
-15 16 0
5613 0
-49 50 0
5614 0
-9 10 0
5615 0
-146 145 0
5616 0
62 -61 0
5617 0
60 -59 0
5618 0
4 -3 0
5619 0
-119 120 0
5620 0
112 -111 0
5621 0
-29 30 0
5622 0
-75 76 0
5623 0
172 -171 0
5624 0
162 -161 0
5625 0
-123 124 0
5626 0
-130 129 0
5627 0
-127 128 0
5628 0
126 -125 0
5629 0
-67 68 0
5630 0
-39 40 0
5631 0
-130 129 0
5632 0
160 -159 0
5633 0
12 -11 0
5634 0
-49 50 0
5635 0
-131 132 0
5636 0
-105 106 0
5637 0
66 -65 0
5638 0
178 -177 0
5639 0
-119 120 0
5640 0
-15 16 0
5641 0
-87 88 0
5642 0
-67 68 0
5643 0
-98 97 0
5644 0
-17 18 0
5645 0
54 -53 0
5646 0
133 -134 0
5647 0
-103 104 0
5648 0
-43 44 0
5649 0
-131 132 0
5650 0
48 -47 0
5651 0
48 -47 0
5652 0
48 -47 0
5653 0
-5 6 0
5654 0
-89 90 0
5655 0
-9 10 0
5656 0
142 -141 0
5657 0
162 -161 0
5658 0
-5 6 0
5659 0
-87 88 0
5660 0
-35 36 0
5661 0
-98 97 0
5662 0
-146 145 0
5663 0
160 -159 0
5664 0
54 -53 0
5665 0
-102 101 0
5666 0
-15 16 0
5667 0
12 -11 0
5668 0
-43 44 0
5669 0
-57 58 0
5670 0
-139 140 0
5671 0
69 -70 0
5672 0
-130 129 0
5673 0
108 -107 0
5674 0
162 -161 0
5675 0
-169 170 0
5676 0
166 -165 0
5677 0
42 -41 0
5678 0
60 -59 0
5679 0
60 -59 0
5680 0
136 -135 0
5681 0
-83 84 0
5682 0
172 -171 0
5683 0
-39 40 0
5684 0
-119 120 0
5685 0
162 -161 0
5686 0
7 -8 0
5687 0
54 -53 0
5688 0
-17 18 0
5689 0
54 -53 0
5690 0
-9 10 0
5691 0
172 -171 0
5692 0
-98 97 0
5693 0
126 -125 0
5694 0
162 -161 0
5695 0
-109 110 0
5696 0
-85 86 0
5697 0
117 -118 0
5698 0
112 -111 0
5699 0
156 -155 0
5700 0
-130 129 0
5701 0
-67 68 0
5702 0
7 -8 0
5703 0
156 -155 0
5704 0
-103 104 0
5705 0
-9 10 0
5706 0
-39 40 0
5707 0
180 -179 0
5708 0
112 -111 0
5709 0
136 -135 0
5710 0
156 -155 0
5711 0
137 -138 0
5712 0
4 -3 0
5713 0
-23 24 0
5714 0
166 -165 0
5715 0
-75 76 0
5716 0
-123 124 0
5717 0
-167 168 0
5718 0
166 -165 0
5719 0
-153 154 0
5720 0
-127 128 0
5721 0
-63 64 0
5722 0
54 -53 0
5723 0
4 -3 0
5724 0
112 -111 0
5725 0
94 -93 0
5726 0
7 -8 0
5727 0
158 -157 0
5728 0
-85 86 0
5729 0
-163 164 0
5730 0
-85 86 0
5731 0
66 -65 0
5732 0
152 -151 0
5733 0
-85 86 0
5734 0
-81 82 0
5735 0
-67 68 0
5736 0
60 -59 0
5737 0
-77 78 0
5738 0
48 -47 0
5739 0
173 -174 0
5740 0
-113 114 0
5741 0
-87 88 0
5742 0
-121 122 0
5743 0
160 -159 0
5744 0
-127 128 0
5745 0
42 -41 0
5746 0
137 -138 0
5747 0
-29 30 0
5748 0
54 -53 0
5749 0
-115 116 0
5750 0
-43 44 0
5751 0
158 -157 0
5752 0
22 -21 0
5753 0
-95 96 0
5754 0
178 -177 0
5755 0
7 -8 0
5756 0
-77 78 0
5757 0
176 -175 0
5758 0
42 -41 0
5759 0
-39 40 0
5760 0
-153 154 0
5761 0
60 -59 0
5762 0
-113 114 0
5763 0
-163 164 0
5764 0
48 -47 0
5765 0
136 -135 0
5766 0
158 -157 0
5767 0
137 -138 0
5768 0
108 -107 0
5769 0
126 -125 0
5770 0
173 -174 0
5771 0
-149 150 0
5772 0
66 -65 0
5773 0
-57 58 0
5774 0
-81 82 0
5775 0
34 -33 0
5776 0
173 -174 0
5777 0
172 -171 0
5778 0
108 -107 0
5779 0
-89 90 0
5780 0
-23 24 0
5781 0
60 -59 0
5782 0
-57 58 0
5783 0
108 -107 0
5784 0
42 -41 0
5785 0
-95 96 0
5786 0
-119 120 0
5787 0
133 -134 0
5788 0
-99 100 0
5789 0
-121 122 0
5790 0
160 -159 0
5791 0
166 -165 0
5792 0
12 -11 0
5793 0
12 -11 0
5794 0
-163 164 0
5795 0
112 -111 0
5796 0
172 -171 0
5797 0
172 -171 0
5798 0
-113 114 0
5799 0
-98 97 0
5800 0
-1 2 0
5801 0
-31 32 0
5802 0
112 -111 0
5803 0
-149 150 0
5804 0
160 -159 0
5805 0
38 -37 0
5806 0
-35 36 0
5807 0
-149 150 0
5808 0
-103 104 0
5809 0
72 -71 0
5810 0
142 -141 0
5811 0
-67 68 0
5812 0
-113 114 0
5813 0
126 -125 0
5814 0
158 -157 0
5815 0
-123 124 0
5816 0
54 -53 0
5817 0
94 -93 0
5818 0
-109 110 0
5819 0
-139 140 0
5820 0
-73 74 0
5821 0
-121 122 0
5822 0
-115 116 0
5823 0
-109 110 0
5824 0
180 -179 0
5825 0
-123 124 0
5826 0
69 -70 0
5827 0
-99 100 0
5828 0
176 -175 0
5829 0
-23 24 0
5830 0
173 -174 0
5831 0
-89 90 0
5832 0
152 -151 0
5833 0
-73 74 0
5834 0
-25 26 0
5835 0
-83 84 0
5836 0
178 -177 0
5837 0
66 -65 0
5838 0
54 -53 0
5839 0
-67 68 0
5840 0
180 -179 0
5841 0
142 -141 0
5842 0
-25 26 0
5843 0
-127 128 0
5844 0
160 -159 0
5845 0
178 -177 0
5846 0
94 -93 0
5847 0
142 -141 0
5848 0
117 -118 0
5849 0
-149 150 0
5850 0
-102 101 0
5851 0
48 -47 0
5852 0
-98 97 0
5853 0
137 -138 0
5854 0
-113 114 0
5855 0
-31 32 0
5856 0
-29 30 0
5857 0
-109 110 0
5858 0
-15 16 0
5859 0
-73 74 0
5860 0
162 -161 0
5861 0
-167 168 0
5862 0
56 -55 0
5863 0
-153 154 0
5864 0
117 -118 0
5865 0
80 -79 0
5866 0
-95 96 0
5867 0
-9 10 0
5868 0
4 -3 0
5869 0
137 -138 0
5870 0
-169 170 0
5871 0
-130 129 0
5872 0
178 -177 0
5873 0
38 -37 0
5874 0
158 -157 0
5875 0
-81 82 0
5876 0
-31 32 0
5877 0
-119 120 0
5878 0
-105 106 0
5879 0
38 -37 0
5880 0
178 -177 0
5881 0
-146 145 0
5882 0
42 -41 0
5883 0
22 -21 0
5884 0
136 -135 0
5885 0
-23 24 0
5886 0
-77 78 0
5887 0
22 -21 0
5888 0
-67 68 0
5889 0
-163 164 0
5890 0
48 -47 0
5891 0
126 -125 0
5892 0
60 -59 0
5893 0
-119 120 0
5894 0
-169 170 0
5895 0
12 -11 0
5896 0
-119 120 0
5897 0
-23 24 0
5898 0
-23 24 0
5899 0
52 -51 0
5900 0
158 -157 0
5901 0
-95 96 0
5902 0
-77 78 0
5903 0
-91 92 0
5904 0
173 -174 0
5905 0
62 -61 0
5906 0
56 -55 0
5907 0
-39 40 0
5908 0
-146 145 0
5909 0
-95 96 0
5910 0
-89 90 0
5911 0
-39 40 0
5912 0
28 -27 0
5913 0
-67 68 0
5914 0
158 -157 0
