p cnf 688 6754
-92 -93 0
-92 -94 0
-92 0
-92 -96 0
-92 -97 0
-92 -98 0
-92 -99 0
-92 -100 0
-92 -101 0
-92 -102 0
-92 -103 0
-92 -104 0
-92 -105 0
-93 -94 0
-93 -95 0
-93 -96 0
-93 -97 0
-93 -98 0
-93 -99 0
-93 -100 0
-93 -101 0
-93 -102 0
-93 -103 0
-93 -104 0
-93 -105 0
-94 -95 0
-94 -96 0
-94 -97 0
-94 -98 0
-94 -99 0
-94 -100 0
-94 -101 0
-94 -102 0
-94 -103 0
-94 -104 0
-94 -105 0
-95 -96 0
-95 -97 0
-95 -98 0
-95 -99 0
-95 -100 0
-95 -101 0
-95 -102 0
-95 -103 0
-95 -104 0
-95 -105 0
-96 -97 0
-96 -98 0
-96 -99 0
-96 -100 0
-96 -101 0
-96 -102 0
-96 -103 0
-96 -104 0
-96 -105 0
-97 -98 0
-97 -99 0
-97 -100 0
-97 -101 0
-97 -102 0
-97 -103 0
-97 -104 0
-97 -105 0
-98 -99 0
-98 -100 0
-98 -101 0
-98 -102 0
-98 -103 0
-98 -104 0
-98 -105 0
-99 -100 0
-99 -101 0
-99 -102 0
-99 -103 0
-99 -104 0
-99 -105 0
-100 -101 0
-100 -102 0
-100 -103 0
-100 -104 0
-100 -105 0
-101 -102 0
-101 -103 0
-101 -104 0
-101 -105 0
-102 -103 0
-102 -104 0
-102 -105 0
-103 -104 0
-103 -105 0
-104 -105 0
92 93 94 95 96 97 98 99 100 101 102 103 104 105 0
-106 -107 0
-106 -108 0
-106 -109 0
-106 -110 0
-106 -111 0
-106 -112 0
-106 -113 0
-106 -114 0
-106 -115 0
-106 -116 0
-106 -117 0
-106 -118 0
-106 -119 0
-107 -108 0
-107 -109 0
-107 -110 0
-107 -111 0
-107 -112 0
-107 -113 0
-107 -114 0
-107 -115 0
-107 -116 0
-107 -117 0
-107 -118 0
-107 -119 0
-108 -109 0
-108 -110 0
-108 -111 0
-108 -112 0
-108 -113 0
-108 -114 0
-108 -115 0
-108 -116 0
-108 -117 0
-108 -118 0
-108 -119 0
-109 -110 0
-109 -111 0
-109 -112 0
-109 -113 0
-109 -114 0
-109 -115 0
-109 -116 0
-109 -117 0
-109 -118 0
-109 -119 0
-110 -111 0
-110 -112 0
-110 -113 0
-110 -114 0
-110 -115 0
-110 -116 0
-110 -117 0
-110 -118 0
-110 -119 0
-111 -112 0
-111 -113 0
-111 -114 0
-111 -115 0
-111 -116 0
-111 -117 0
-111 -118 0
-111 -119 0
-112 -113 0
-112 -114 0
-112 -115 0
-112 -116 0
-112 -117 0
-112 -118 0
-112 -119 0
-113 -114 0
-113 -115 0
-113 -116 0
-113 -117 0
-113 -118 0
-113 -119 0
-114 -115 0
-114 -116 0
-114 -117 0
-114 -118 0
-114 -119 0
-115 -116 0
-115 -117 0
-115 -118 0
-115 -119 0
-116 -117 0
-116 -118 0
-116 -119 0
-117 -118 0
-117 -119 0
-118 -119 0
106 107 108 109 110 111 112 113 114 115 116 117 118 119 0
-120 -121 0
-120 -122 0
-120 -123 0
-120 -124 0
-120 -125 0
-120 -126 0
-120 -127 0
-120 -128 0
-120 -129 0
-120 -130 0
-120 -131 0
-120 -132 0
-120 -133 0
-121 -122 0
-121 -123 0
-121 -124 0
-121 -125 0
-121 -126 0
-121 -127 0
-121 -128 0
-121 -129 0
-121 -130 0
-121 -131 0
-121 -132 0
-121 -133 0
-122 -123 0
-122 -124 0
-122 -125 0
-122 -126 0
-122 -127 0
-122 -128 0
-122 -129 0
-122 -130 0
-122 -131 0
-122 -132 0
-122 -133 0
-123 -124 0
-123 -125 0
-123 -126 0
-123 -127 0
-123 -128 0
-123 -129 0
-123 -130 0
-123 -131 0
-123 -132 0
-123 -133 0
-124 -125 0
-124 -126 0
-124 -127 0
-124 -128 0
-124 -129 0
-124 -130 0
-124 -131 0
-124 -132 0
-124 -133 0
-125 -126 0
-125 -127 0
-125 -128 0
-125 -129 0
-125 -130 0
-125 -131 0
-125 -132 0
-125 -133 0
-126 -127 0
-126 -128 0
-126 -129 0
-126 -130 0
-126 -131 0
-126 -132 0
-126 -133 0
-127 -128 0
-127 -129 0
-127 -130 0
-127 -131 0
-127 -132 0
-127 -133 0
-128 -129 0
-128 -130 0
-128 -131 0
-128 -132 0
-128 -133 0
-129 -130 0
-129 -131 0
-129 -132 0
-129 -133 0
-130 -131 0
-130 -132 0
-130 -133 0
-131 -132 0
-131 -133 0
-132 -133 0
120 121 122 123 124 125 126 127 128 129 130 131 132 133 0
-134 -135 0
-134 -136 0
-134 -137 0
-134 -138 0
-134 -139 0
-134 -140 0
-134 -141 0
-134 -142 0
-134 -143 0
-134 -144 0
-134 -145 0
-134 -146 0
-134 -147 0
-135 -136 0
-135 -137 0
-135 -138 0
-135 -139 0
-135 -140 0
-135 -141 0
-135 -142 0
-135 -143 0
-135 -144 0
-135 -145 0
-135 -146 0
-135 -147 0
-136 -137 0
-136 -138 0
-136 -139 0
-136 -140 0
-136 -141 0
-136 -142 0
-136 -143 0
-136 -144 0
-136 -145 0
-136 -146 0
-136 -147 0
-137 -138 0
-137 -139 0
-137 -140 0
-137 -141 0
-137 -142 0
-137 -143 0
-137 -144 0
-137 -145 0
-137 -146 0
-137 -147 0
-138 -139 0
-138 -140 0
-138 -141 0
-138 -142 0
-138 -143 0
-138 -144 0
-138 -145 0
-138 -146 0
-138 -147 0
-139 -140 0
-139 -141 0
-139 -142 0
-139 -143 0
-139 -144 0
-139 -145 0
-139 -146 0
-139 -147 0
-140 -141 0
-140 -142 0
-140 -143 0
-140 -144 0
-140 -145 0
-140 -146 0
-140 -147 0
-141 -142 0
-141 -143 0
-141 -144 0
-141 -145 0
-141 -146 0
-141 -147 0
-142 -143 0
-142 -144 0
-142 -145 0
-142 -146 0
-142 -147 0
-143 -144 0
-143 -145 0
-143 -146 0
-143 -147 0
-144 -145 0
-144 -146 0
-144 -147 0
-145 -146 0
-145 -147 0
-146 -147 0
134 135 136 137 138 139 140 141 142 143 144 145 146 147 0
-148 -149 0
-148 -150 0
-148 -151 0
-148 -152 0
-148 -153 0
-148 -154 0
-148 -155 0
-148 -156 0
-148 -157 0
-148 -158 0
-148 -159 0
-148 -160 0
-148 -161 0
-149 -150 0
-149 -151 0
-149 -152 0
-149 -153 0
-149 -154 0
-149 -155 0
-149 -156 0
-149 -157 0
-149 -158 0
-149 -159 0
-149 -160 0
-149 -161 0
-150 -151 0
-150 -152 0
-150 -153 0
-150 -154 0
-150 -155 0
-150 -156 0
-150 -157 0
-150 -158 0
-150 -159 0
-150 -160 0
-150 -161 0
-151 -152 0
-151 -153 0
-151 -154 0
-151 -155 0
-151 -156 0
-151 -157 0
-151 -158 0
-151 -159 0
-151 -160 0
-151 -161 0
-152 -153 0
-152 -154 0
-152 -155 0
-152 -156 0
-152 -157 0
-152 -158 0
-152 -159 0
-152 -160 0
-152 -161 0
-153 -154 0
-153 -155 0
-153 -156 0
-153 -157 0
-153 -158 0
-153 -159 0
-153 -160 0
-153 -161 0
-154 -155 0
-154 -156 0
-154 -157 0
-154 -158 0
-154 -159 0
-154 -160 0
-154 -161 0
-155 -156 0
-155 -157 0
-155 -158 0
-155 -159 0
-155 -160 0
-155 -161 0
-156 -157 0
-156 -158 0
-156 -159 0
-156 -160 0
-156 -161 0
-157 -158 0
-157 -159 0
-157 -160 0
-157 -161 0
-158 -159 0
-158 -160 0
-158 -161 0
-159 -160 0
-159 -161 0
-160 -161 0
148 149 150 151 152 153 154 155 156 157 158 159 160 161 0
-162 -163 0
-162 -164 0
-162 -165 0
-162 -166 0
-162 -167 0
-162 -168 0
-162 -169 0
-162 -170 0
-162 -171 0
-162 -172 0
-162 -173 0
-162 -174 0
-162 -175 0
-163 -164 0
-163 -165 0
-163 -166 0
-163 -167 0
-163 -168 0
-163 -169 0
-163 -170 0
-163 -171 0
-163 -172 0
-163 -173 0
-163 -174 0
-163 -175 0
-164 -165 0
-164 -166 0
-164 -167 0
-164 -168 0
-164 -169 0
-164 -170 0
-164 -171 0
-164 -172 0
-164 -173 0
-164 -174 0
-164 -175 0
-165 -166 0
-165 -167 0
-165 -168 0
-165 -169 0
-165 -170 0
-165 -171 0
-165 -172 0
-165 -173 0
-165 -174 0
-165 -175 0
-166 -167 0
-166 -168 0
-166 -169 0
-166 -170 0
-166 -171 0
-166 -172 0
-166 -173 0
-166 -174 0
-166 -175 0
-167 -168 0
-167 -169 0
-167 -170 0
-167 -171 0
-167 -172 0
-167 -173 0
-167 -174 0
-167 -175 0
-168 -169 0
-168 -170 0
-168 -171 0
-168 -172 0
-168 -173 0
-168 -174 0
-168 -175 0
-169 -170 0
-169 -171 0
-169 -172 0
-169 -173 0
-169 -174 0
-169 -175 0
-170 -171 0
-170 -172 0
-170 -173 0
-170 -174 0
-170 -175 0
-171 -172 0
-171 -173 0
-171 -174 0
-171 -175 0
-172 -173 0
-172 -174 0
-172 -175 0
-173 -174 0
-173 -175 0
-174 -175 0
162 163 164 165 166 167 168 169 170 171 172 173 174 175 0
-176 -177 0
-176 -178 0
-176 -179 0
-176 -180 0
-176 -181 0
-176 -182 0
-176 -183 0
-176 -184 0
-176 -185 0
-176 -186 0
-176 -187 0
-176 -188 0
-176 -189 0
-177 -178 0
-177 -179 0
-177 -180 0
-177 -181 0
-177 -182 0
-177 -183 0
-177 -184 0
-177 -185 0
-177 -186 0
-177 -187 0
-177 -188 0
-177 -189 0
-178 -179 0
-178 -180 0
-178 -181 0
-178 -182 0
-178 -183 0
-178 -184 0
-178 -185 0
-178 -186 0
-178 -187 0
-178 -188 0
-178 -189 0
-179 -180 0
-179 -181 0
-179 -182 0
-179 -183 0
-179 -184 0
-179 -185 0
-179 -186 0
-179 -187 0
-179 -188 0
-179 -189 0
-180 -181 0
-180 -182 0
-180 -183 0
-180 -184 0
-180 -185 0
-180 -186 0
-180 -187 0
-180 -188 0
-180 -189 0
-181 -182 0
-181 -183 0
-181 -184 0
-181 -185 0
-181 -186 0
-181 -187 0
-181 -188 0
-181 -189 0
-182 -183 0
-182 -184 0
-182 -185 0
-182 -186 0
-182 -187 0
-182 -188 0
-182 -189 0
-183 -184 0
-183 -185 0
-183 -186 0
-183 -187 0
-183 -188 0
-183 -189 0
-184 -185 0
-184 -186 0
-184 -187 0
-184 -188 0
-184 -189 0
-185 -186 0
-185 -187 0
-185 -188 0
-185 -189 0
-186 -187 0
-186 -188 0
-186 -189 0
-187 -188 0
-187 -189 0
-188 -189 0
176 177 178 179 180 181 182 183 184 185 186 187 188 189 0
-92 -106 0
-92 -120 0
-92 -134 0
-92 -148 0
-92 -162 0
-92 -176 0
-106 -120 0
-106 -134 0
-106 -148 0
-106 -162 0
-106 -176 0
-120 -134 0
-120 -148 0
-120 -162 0
-120 -176 0
-134 -148 0
-134 -162 0
-134 -176 0
-148 -162 0
-148 -176 0
-162 -176 0
-93 -107 0
-93 -121 0
-93 -135 0
-93 -149 0
-93 -163 0
-93 -177 0
-107 -121 0
-107 -135 0
-107 -149 0
-107 -163 0
-107 -177 0
-121 -135 0
-121 -149 0
-121 -163 0
-121 -177 0
-135 -149 0
-135 -163 0
-135 -177 0
-149 -163 0
-149 -177 0
-163 -177 0
-94 -108 0
-94 -122 0
-94 -136 0
-94 -150 0
-94 -164 0
-94 -178 0
-108 -122 0
-108 -136 0
-108 -150 0
-108 -164 0
-108 -178 0
-122 -136 0
-122 -150 0
-122 -164 0
-122 -178 0
-136 -150 0
-136 -164 0
-136 -178 0
-150 -164 0
-150 -178 0
-164 -178 0
-95 -109 0
-95 -123 0
-95 -137 0
-95 -151 0
-95 -165 0
-95 -179 0
-109 -123 0
-109 -137 0
-109 -151 0
-109 -165 0
-109 -179 0
-123 -137 0
-123 -151 0
-123 -165 0
-123 -179 0
-137 -151 0
-137 -165 0
-137 -179 0
-151 -165 0
-151 -179 0
-165 -179 0
-96 -110 0
-96 -124 0
-96 -138 0
-96 -152 0
-96 -166 0
-96 -180 0
-110 -124 0
-110 -138 0
-110 -152 0
-110 -166 0
-110 -180 0
-124 -138 0
-124 -152 0
-124 -166 0
-124 -180 0
-138 -152 0
-138 -166 0
-138 -180 0
-152 -166 0
-152 -180 0
-166 -180 0
-97 -111 0
-97 -125 0
-97 -139 0
-97 -153 0
-97 -167 0
-97 -181 0
-111 -125 0
-111 -139 0
-111 -153 0
-111 -167 0
-111 -181 0
-125 -139 0
-125 -153 0
-125 -167 0
-125 -181 0
-139 -153 0
-139 -167 0
-139 -181 0
-153 -167 0
-153 -181 0
-167 -181 0
-98 -112 0
-98 -126 0
-98 -140 0
-98 -154 0
-98 -168 0
-98 -182 0
-112 -126 0
-112 -140 0
-112 -154 0
-112 -168 0
-112 -182 0
-126 -140 0
-126 -154 0
-126 -168 0
-126 -182 0
-140 -154 0
-140 -168 0
-140 -182 0
-154 -168 0
-154 -182 0
-168 -182 0
-99 -113 0
-99 -127 0
-99 -141 0
-99 -155 0
-99 -169 0
-99 -183 0
-113 -127 0
-113 -141 0
-113 -155 0
-113 -169 0
-113 -183 0
-127 -141 0
-127 -155 0
-127 -169 0
-127 -183 0
-141 -155 0
-141 -169 0
-141 -183 0
-155 -169 0
-155 -183 0
-169 -183 0
-100 -114 0
-100 -128 0
-100 -142 0
-100 -156 0
-100 -170 0
-100 -184 0
-114 -128 0
-114 -142 0
-114 -156 0
-114 -170 0
-114 -184 0
-128 -142 0
-128 -156 0
-128 -170 0
-128 -184 0
-142 -156 0
-142 -170 0
-142 -184 0
-156 -170 0
-156 -184 0
-170 -184 0
-101 -115 0
-101 -129 0
-101 -143 0
-101 -157 0
-101 -171 0
-101 -185 0
-115 -129 0
-115 -143 0
-115 -157 0
-115 -171 0
-115 -185 0
-129 -143 0
-129 -157 0
-129 -171 0
-129 -185 0
-143 -157 0
-143 -171 0
-143 -185 0
-157 -171 0
-157 -185 0
-171 -185 0
-102 -116 0
-102 -130 0
-102 -144 0
-102 -158 0
-102 -172 0
-102 -186 0
-116 -130 0
-116 -144 0
-116 -158 0
-116 -172 0
-116 -186 0
-130 -144 0
-130 -158 0
-130 -172 0
-130 -186 0
-144 -158 0
-144 -172 0
-144 -186 0
-158 -172 0
-158 -186 0
-172 -186 0
-103 -117 0
-103 -131 0
-103 -145 0
-103 -159 0
-103 -173 0
-103 -187 0
-117 -131 0
-117 -145 0
-117 -159 0
-117 -173 0
-117 -187 0
-131 -145 0
-131 -159 0
-131 -173 0
-131 -187 0
-145 -159 0
-145 -173 0
-145 -187 0
-159 -173 0
-159 -187 0
-173 -187 0
-104 -118 0
-104 -132 0
-104 -146 0
-104 -160 0
-104 -174 0
-104 -188 0
-118 -132 0
-118 -146 0
-118 -160 0
-118 -174 0
-118 -188 0
-132 -146 0
-132 -160 0
-132 -174 0
-132 -188 0
-146 -160 0
-146 -174 0
-146 -188 0
-160 -174 0
-160 -188 0
-174 -188 0
-105 -119 0
-105 -133 0
-105 -147 0
-105 -161 0
-105 -175 0
-105 -189 0
-119 -133 0
-119 -147 0
-119 -161 0
-119 -175 0
-119 -189 0
-133 -147 0
-133 -161 0
-133 -175 0
-133 -189 0
-147 -161 0
-147 -175 0
-147 -189 0
-161 -175 0
-161 -189 0
-175 -189 0
1 -92 -107 0
1 -92 -121 0
1 -92 -135 0
1 -92 -149 0
1 -92 -163 0
1 -92 -177 0
1 -106 -93 0
1 -106 -121 0
1 -106 -135 0
1 -106 -149 0
1 -106 -163 0
1 -106 -177 0
1 -120 -93 0
1 -120 -107 0
1 -120 -135 0
1 -120 -149 0
1 -120 -163 0
1 -120 -177 0
1 -134 -93 0
1 -134 -107 0
1 -134 -121 0
1 -134 -149 0
1 -134 -163 0
1 -134 -177 0
1 -148 -93 0
1 -148 -107 0
1 -148 -121 0
1 -148 -135 0
1 -148 -163 0
1 -148 -177 0
1 -162 -93 0
1 -162 -107 0
1 -162 -121 0
1 -162 -135 0
1 -162 -149 0
1 -162 -177 0
1 -176 -93 0
1 -176 -107 0
1 -176 -121 0
1 -176 -135 0
1 -176 -149 0
1 -176 -163 0
2 -92 -108 0
2 -92 -122 0
2 -92 -136 0
2 -92 -150 0
2 -92 -164 0
2 -92 -178 0
2 -106 -94 0
2 -106 -122 0
2 -106 -136 0
2 -106 -150 0
2 -106 -164 0
2 -106 -178 0
2 -120 -94 0
2 -120 -108 0
2 -120 -136 0
2 -120 -150 0
2 -120 -164 0
2 -120 -178 0
2 -134 -94 0
2 -134 -108 0
2 -134 -122 0
2 -134 -150 0
2 -134 -164 0
2 -134 -178 0
2 -148 -94 0
2 -148 -108 0
2 -148 -122 0
2 -148 -136 0
2 -148 -164 0
2 -148 -178 0
2 -162 -94 0
2 -162 -108 0
2 -162 -122 0
2 -162 -136 0
2 -162 -150 0
2 -162 -178 0
2 -176 -94 0
2 -176 -108 0
2 -176 -122 0
2 -176 -136 0
2 -176 -150 0
2 -176 -164 0
3 -92 -109 0
3 -92 -123 0
3 -92 -137 0
3 -92 -151 0
3 -92 -165 0
3 -92 -179 0
3 -106 -95 0
3 -106 -123 0
3 -106 -137 0
3 -106 -151 0
3 -106 -165 0
3 -106 -179 0
3 -120 -95 0
3 -120 -109 0
3 -120 -137 0
3 -120 -151 0
3 -120 -165 0
3 -120 -179 0
3 -134 -95 0
3 -134 -109 0
3 -134 -123 0
3 -134 -151 0
3 -134 -165 0
3 -134 -179 0
3 -148 -95 0
3 -148 -109 0
3 -148 -123 0
3 -148 -137 0
3 -148 -165 0
3 -148 -179 0
3 -162 -95 0
3 -162 -109 0
3 -162 -123 0
3 -162 -137 0
3 -162 -151 0
3 -162 -179 0
3 -176 -95 0
3 -176 -109 0
3 -176 -123 0
3 -176 -137 0
3 -176 -151 0
3 -176 -165 0
4 -92 -110 0
4 -92 -124 0
4 -92 -138 0
4 -92 -152 0
4 -92 -166 0
4 -92 -180 0
4 -106 -96 0
4 -106 -124 0
4 -106 -138 0
4 -106 -152 0
4 -106 -166 0
4 -106 -180 0
4 -120 -96 0
4 -120 -110 0
4 -120 -138 0
4 -120 -152 0
4 -120 -166 0
4 -120 -180 0
4 -134 -96 0
4 -134 -110 0
4 -134 -124 0
4 -134 -152 0
4 -134 -166 0
4 -134 -180 0
4 -148 -96 0
4 -148 -110 0
4 -148 -124 0
4 -148 -138 0
4 -148 -166 0
4 -148 -180 0
4 -162 -96 0
4 -162 -110 0
4 -162 -124 0
4 -162 -138 0
4 -162 -152 0
4 -162 -180 0
4 -176 -96 0
4 -176 -110 0
4 -176 -124 0
4 -176 -138 0
4 -176 -152 0
4 -176 -166 0
5 -92 -111 0
5 -92 -125 0
5 -92 -139 0
5 -92 -153 0
5 -92 -167 0
5 -92 -181 0
5 -106 -97 0
5 -106 -125 0
5 -106 -139 0
5 -106 -153 0
5 -106 -167 0
5 -106 -181 0
5 -120 -97 0
5 -120 -111 0
5 -120 -139 0
5 -120 -153 0
5 -120 -167 0
5 -120 -181 0
5 -134 -97 0
5 -134 -111 0
5 -134 -125 0
5 -134 -153 0
5 -134 -167 0
5 -134 -181 0
5 -148 -97 0
5 -148 -111 0
5 -148 -125 0
5 -148 -139 0
5 -148 -167 0
5 -148 -181 0
5 -162 -97 0
5 -162 -111 0
5 -162 -125 0
5 -162 -139 0
5 -162 -153 0
5 -162 -181 0
5 -176 -97 0
5 -176 -111 0
5 -176 -125 0
5 -176 -139 0
5 -176 -153 0
5 -176 -167 0
6 -92 -112 0
6 -92 -126 0
6 -92 -140 0
6 -92 -154 0
6 -92 -168 0
6 -92 -182 0
6 -106 -98 0
6 -106 -126 0
6 -106 -140 0
6 -106 -154 0
6 -106 -168 0
6 -106 -182 0
6 -120 -98 0
6 -120 -112 0
6 -120 -140 0
6 -120 -154 0
6 -120 -168 0
6 -120 -182 0
6 -134 -98 0
6 -134 -112 0
6 -134 -126 0
6 -134 -154 0
6 -134 -168 0
6 -134 -182 0
6 -148 -98 0
6 -148 -112 0
6 -148 -126 0
6 -148 -140 0
6 -148 -168 0
6 -148 -182 0
6 -162 -98 0
6 -162 -112 0
6 -162 -126 0
6 -162 -140 0
6 -162 -154 0
6 -162 -182 0
6 -176 -98 0
6 -176 -112 0
6 -176 -126 0
6 -176 -140 0
6 -176 -154 0
6 -176 -168 0
7 -92 -113 0
7 -92 -127 0
7 -92 -141 0
7 -92 -155 0
7 -92 -169 0
7 -92 -183 0
7 -106 -99 0
7 -106 -127 0
7 -106 -141 0
7 -106 -155 0
7 -106 -169 0
7 -106 -183 0
7 -120 -99 0
7 -120 -113 0
7 -120 -141 0
7 -120 -155 0
7 -120 -169 0
7 -120 -183 0
7 -134 -99 0
7 -134 -113 0
7 -134 -127 0
7 -134 -155 0
7 -134 -169 0
7 -134 -183 0
7 -148 -99 0
7 -148 -113 0
7 -148 -127 0
7 -148 -141 0
7 -148 -169 0
7 -148 -183 0
7 -162 -99 0
7 -162 -113 0
7 -162 -127 0
7 -162 -141 0
7 -162 -155 0
7 -162 -183 0
7 -176 -99 0
7 -176 -113 0
7 -176 -127 0
7 -176 -141 0
7 -176 -155 0
7 -176 -169 0
8 -92 -114 0
8 -92 -128 0
8 -92 -142 0
8 -92 -156 0
8 -92 -170 0
8 -92 -184 0
8 -106 -100 0
8 -106 -128 0
8 -106 -142 0
8 -106 -156 0
8 -106 -170 0
8 -106 -184 0
8 -120 -100 0
8 -120 -114 0
8 -120 -142 0
8 -120 -156 0
8 -120 -170 0
8 -120 -184 0
8 -134 -100 0
8 -134 -114 0
8 -134 -128 0
8 -134 -156 0
8 -134 -170 0
8 -134 -184 0
8 -148 -100 0
8 -148 -114 0
8 -148 -128 0
8 -148 -142 0
8 -148 -170 0
8 -148 -184 0
8 -162 -100 0
8 -162 -114 0
8 -162 -128 0
8 -162 -142 0
8 -162 -156 0
8 -162 -184 0
8 -176 -100 0
8 -176 -114 0
8 -176 -128 0
8 -176 -142 0
8 -176 -156 0
8 -176 -170 0
9 -92 -115 0
9 -92 -129 0
9 -92 -143 0
9 -92 -157 0
9 -92 -171 0
9 -92 -185 0
9 -106 -101 0
9 -106 -129 0
9 -106 -143 0
9 -106 -157 0
9 -106 -171 0
9 -106 -185 0
9 -120 -101 0
9 -120 -115 0
9 -120 -143 0
9 -120 -157 0
9 -120 -171 0
9 -120 -185 0
9 -134 -101 0
9 -134 -115 0
9 -134 -129 0
9 -134 -157 0
9 -134 -171 0
9 -134 -185 0
9 -148 -101 0
9 -148 -115 0
9 -148 -129 0
9 -148 -143 0
9 -148 -171 0
9 -148 -185 0
9 -162 -101 0
9 -162 -115 0
9 -162 -129 0
9 -162 -143 0
9 -162 -157 0
9 -162 -185 0
9 -176 -101 0
9 -176 -115 0
9 -176 -129 0
9 -176 -143 0
9 -176 -157 0
9 -176 -171 0
10 -92 -116 0
10 -92 -130 0
10 -92 -144 0
10 -92 -158 0
10 -92 -172 0
10 -92 -186 0
10 -106 -102 0
10 -106 -130 0
10 -106 -144 0
10 -106 -158 0
10 -106 -172 0
10 -106 -186 0
10 -120 -102 0
10 -120 -116 0
10 -120 -144 0
10 -120 -158 0
10 -120 -172 0
10 -120 -186 0
10 -134 -102 0
10 -134 -116 0
10 -134 -130 0
10 -134 -158 0
10 -134 -172 0
10 -134 -186 0
10 -148 -102 0
10 -148 -116 0
10 -148 -130 0
10 -148 -144 0
10 -148 -172 0
10 -148 -186 0
10 -162 -102 0
10 -162 -116 0
10 -162 -130 0
10 -162 -144 0
10 -162 -158 0
10 -162 -186 0
10 -176 -102 0
10 -176 -116 0
10 -176 -130 0
10 -176 -144 0
10 -176 -158 0
10 -176 -172 0
11 -92 -117 0
11 -92 -131 0
11 -92 -145 0
11 -92 -159 0
11 -92 -173 0
11 -92 -187 0
11 -106 -103 0
11 -106 -131 0
11 -106 -145 0
11 -106 -159 0
11 -106 -173 0
11 -106 -187 0
11 -120 -103 0
11 -120 -117 0
11 -120 -145 0
11 -120 -159 0
11 -120 -173 0
11 -120 -187 0
11 -134 -103 0
11 -134 -117 0
11 -134 -131 0
11 -134 -159 0
11 -134 -173 0
11 -134 -187 0
11 -148 -103 0
11 -148 -117 0
11 -148 -131 0
11 -148 -145 0
11 -148 -173 0
11 -148 -187 0
11 -162 -103 0
11 -162 -117 0
11 -162 -131 0
11 -162 -145 0
11 -162 -159 0
11 -162 -187 0
11 -176 -103 0
11 -176 -117 0
11 -176 -131 0
11 -176 -145 0
11 -176 -159 0
11 -176 -173 0
12 -92 -118 0
12 -92 -132 0
12 -92 -146 0
12 -92 -160 0
12 -92 -174 0
12 -92 -188 0
12 -106 -104 0
12 -106 -132 0
12 -106 -146 0
12 -106 -160 0
12 -106 -174 0
12 -106 -188 0
12 -120 -104 0
12 -120 -118 0
12 -120 -146 0
12 -120 -160 0
12 -120 -174 0
12 -120 -188 0
12 -134 -104 0
12 -134 -118 0
12 -134 -132 0
12 -134 -160 0
12 -134 -174 0
12 -134 -188 0
12 -148 -104 0
12 -148 -118 0
12 -148 -132 0
12 -148 -146 0
12 -148 -174 0
12 -148 -188 0
12 -162 -104 0
12 -162 -118 0
12 -162 -132 0
12 -162 -146 0
12 -162 -160 0
12 -162 -188 0
12 -176 -104 0
12 -176 -118 0
12 -176 -132 0
12 -176 -146 0
12 -176 -160 0
12 -176 -174 0
13 -92 -119 0
13 -92 -133 0
13 -92 -147 0
13 -92 -161 0
13 -92 -175 0
13 -92 -189 0
13 -106 -105 0
13 -106 -133 0
13 -106 -147 0
13 -106 -161 0
13 -106 -175 0
13 -106 -189 0
13 -120 -105 0
13 -120 -119 0
13 -120 -147 0
13 -120 -161 0
13 -120 -175 0
13 -120 -189 0
13 -134 -105 0
13 -134 -119 0
13 -134 -133 0
13 -134 -161 0
13 -134 -175 0
13 -134 -189 0
13 -148 -105 0
13 -148 -119 0
13 -148 -133 0
13 -148 -147 0
13 -148 -175 0
13 -148 -189 0
13 -162 -105 0
13 -162 -119 0
13 -162 -133 0
13 -162 -147 0
13 -162 -161 0
13 -162 -189 0
13 -176 -105 0
13 -176 -119 0
13 -176 -133 0
13 -176 -147 0
13 -176 -161 0
13 -176 -175 0
14 -93 -108 0
14 -93 -122 0
14 -93 -136 0
14 -93 -150 0
14 -93 -164 0
14 -93 -178 0
14 -107 -94 0
14 -107 -122 0
14 -107 -136 0
14 -107 -150 0
14 -107 -164 0
14 -107 -178 0
14 -121 -94 0
14 -121 -108 0
14 -121 -136 0
14 -121 -150 0
14 -121 -164 0
14 -121 -178 0
14 -135 -94 0
14 -135 -108 0
14 -135 -122 0
14 -135 -150 0
14 -135 -164 0
14 -135 -178 0
14 -149 -94 0
14 -149 -108 0
14 -149 -122 0
14 -149 -136 0
14 -149 -164 0
14 -149 -178 0
14 -163 -94 0
14 -163 -108 0
14 -163 -122 0
14 -163 -136 0
14 -163 -150 0
14 -163 -178 0
14 -177 -94 0
14 -177 -108 0
14 -177 -122 0
14 -177 -136 0
14 -177 -150 0
14 -177 -164 0
15 -93 -109 0
15 -93 -123 0
15 -93 -137 0
15 -93 -151 0
15 -93 -165 0
15 -93 -179 0
15 -107 -95 0
15 -107 -123 0
15 -107 -137 0
15 -107 -151 0
15 -107 -165 0
15 -107 -179 0
15 -121 -95 0
15 -121 -109 0
15 -121 -137 0
15 -121 -151 0
15 -121 -165 0
15 -121 -179 0
15 -135 -95 0
15 -135 -109 0
15 -135 -123 0
15 -135 -151 0
15 -135 -165 0
15 -135 -179 0
15 -149 -95 0
15 -149 -109 0
15 -149 -123 0
15 -149 -137 0
15 -149 -165 0
15 -149 -179 0
15 -163 -95 0
15 -163 -109 0
15 -163 -123 0
15 -163 -137 0
15 -163 -151 0
15 -163 -179 0
15 -177 -95 0
15 -177 -109 0
15 -177 -123 0
15 -177 -137 0
15 -177 -151 0
15 -177 -165 0
16 -93 -110 0
16 -93 -124 0
16 -93 -138 0
16 -93 -152 0
16 -93 -166 0
16 -93 -180 0
16 -107 -96 0
16 -107 -124 0
16 -107 -138 0
16 -107 -152 0
16 -107 -166 0
16 -107 -180 0
16 -121 -96 0
16 -121 -110 0
16 -121 -138 0
16 -121 -152 0
16 -121 -166 0
16 -121 -180 0
16 -135 -96 0
16 -135 -110 0
16 -135 -124 0
16 -135 -152 0
16 -135 -166 0
16 -135 -180 0
16 -149 -96 0
16 -149 -110 0
16 -149 -124 0
16 -149 -138 0
16 -149 -166 0
16 -149 -180 0
16 -163 -96 0
16 -163 -110 0
16 -163 -124 0
16 -163 -138 0
16 -163 -152 0
16 -163 -180 0
16 -177 -96 0
16 -177 -110 0
16 -177 -124 0
16 -177 -138 0
16 -177 -152 0
16 -177 -166 0
17 -93 -111 0
17 -93 -125 0
17 -93 -139 0
17 -93 -153 0
17 -93 -167 0
17 -93 -181 0
17 -107 -97 0
17 -107 -125 0
17 -107 -139 0
17 -107 -153 0
17 -107 -167 0
17 -107 -181 0
17 -121 -97 0
17 -121 -111 0
17 -121 -139 0
17 -121 -153 0
17 -121 -167 0
17 -121 -181 0
17 -135 -97 0
17 -135 -111 0
17 -135 -125 0
17 -135 -153 0
17 -135 -167 0
17 -135 -181 0
17 -149 -97 0
17 -149 -111 0
17 -149 -125 0
17 -149 -139 0
17 -149 -167 0
17 -149 -181 0
17 -163 -97 0
17 -163 -111 0
17 -163 -125 0
17 -163 -139 0
17 -163 -153 0
17 -163 -181 0
17 -177 -97 0
17 -177 -111 0
17 -177 -125 0
17 -177 -139 0
17 -177 -153 0
17 -177 -167 0
18 -93 -112 0
18 -93 -126 0
18 -93 -140 0
18 -93 -154 0
18 -93 -168 0
18 -93 -182 0
18 -107 -98 0
18 -107 -126 0
18 -107 -140 0
18 -107 -154 0
18 -107 -168 0
18 -107 -182 0
18 -121 -98 0
18 -121 -112 0
18 -121 -140 0
18 -121 -154 0
18 -121 -168 0
18 -121 -182 0
18 -135 -98 0
18 -135 -112 0
18 -135 -126 0
18 -135 -154 0
18 -135 -168 0
18 -135 -182 0
18 -149 -98 0
18 -149 -112 0
18 -149 -126 0
18 -149 -140 0
18 -149 -168 0
18 -149 -182 0
18 -163 -98 0
18 -163 -112 0
18 -163 -126 0
18 -163 -140 0
18 -163 -154 0
18 -163 -182 0
18 -177 -98 0
18 -177 -112 0
18 -177 -126 0
18 -177 -140 0
18 -177 -154 0
18 -177 -168 0
19 -93 -113 0
19 -93 -127 0
19 -93 -141 0
19 -93 -155 0
19 -93 -169 0
19 -93 -183 0
19 -107 -99 0
19 -107 -127 0
19 -107 -141 0
19 -107 -155 0
19 -107 -169 0
19 -107 -183 0
19 -121 -99 0
19 -121 -113 0
19 -121 -141 0
19 -121 -155 0
19 -121 -169 0
19 -121 -183 0
19 -135 -99 0
19 -135 -113 0
19 -135 -127 0
19 -135 -155 0
19 -135 -169 0
19 -135 -183 0
19 -149 -99 0
19 -149 -113 0
19 -149 -127 0
19 -149 -141 0
19 -149 -169 0
19 -149 -183 0
19 -163 -99 0
19 -163 -113 0
19 -163 -127 0
19 -163 -141 0
19 -163 -155 0
19 -163 -183 0
19 -177 -99 0
19 -177 -113 0
19 -177 -127 0
19 -177 -141 0
19 -177 -155 0
19 -177 -169 0
20 -93 -114 0
20 -93 -128 0
20 -93 -142 0
20 -93 -156 0
20 -93 -170 0
20 -93 -184 0
20 -107 -100 0
20 -107 -128 0
20 -107 -142 0
20 -107 -156 0
20 -107 -170 0
20 -107 -184 0
20 -121 -100 0
20 -121 -114 0
20 -121 -142 0
20 -121 -156 0
20 -121 -170 0
20 -121 -184 0
20 -135 -100 0
20 -135 -114 0
20 -135 -128 0
20 -135 -156 0
20 -135 -170 0
20 -135 -184 0
20 -149 -100 0
20 -149 -114 0
20 -149 -128 0
20 -149 -142 0
20 -149 -170 0
20 -149 -184 0
20 -163 -100 0
20 -163 -114 0
20 -163 -128 0
20 -163 -142 0
20 -163 -156 0
20 -163 -184 0
20 -177 -100 0
20 -177 -114 0
20 -177 -128 0
20 -177 -142 0
20 -177 -156 0
20 -177 -170 0
21 -93 -115 0
21 -93 -129 0
21 -93 -143 0
21 -93 -157 0
21 -93 -171 0
21 -93 -185 0
21 -107 -101 0
21 -107 -129 0
21 -107 -143 0
21 -107 -157 0
21 -107 -171 0
21 -107 -185 0
21 -121 -101 0
21 -121 -115 0
21 -121 -143 0
21 -121 -157 0
21 -121 -171 0
21 -121 -185 0
21 -135 -101 0
21 -135 -115 0
21 -135 -129 0
21 -135 -157 0
21 -135 -171 0
21 -135 -185 0
21 -149 -101 0
21 -149 -115 0
21 -149 -129 0
21 -149 -143 0
21 -149 -171 0
21 -149 -185 0
21 -163 -101 0
21 -163 -115 0
21 -163 -129 0
21 -163 -143 0
21 -163 -157 0
21 -163 -185 0
21 -177 -101 0
21 -177 -115 0
21 -177 -129 0
21 -177 -143 0
21 -177 -157 0
21 -177 -171 0
22 -93 -116 0
22 -93 -130 0
22 -93 -144 0
22 -93 -158 0
22 -93 -172 0
22 -93 -186 0
22 -107 -102 0
22 -107 -130 0
22 -107 -144 0
22 -107 -158 0
22 -107 -172 0
22 -107 -186 0
22 -121 -102 0
22 -121 -116 0
22 -121 -144 0
22 -121 -158 0
22 -121 -172 0
22 -121 -186 0
22 -135 -102 0
22 -135 -116 0
22 -135 -130 0
22 -135 -158 0
22 -135 -172 0
22 -135 -186 0
22 -149 -102 0
22 -149 -116 0
22 -149 -130 0
22 -149 -144 0
22 -149 -172 0
22 -149 -186 0
22 -163 -102 0
22 -163 -116 0
22 -163 -130 0
22 -163 -144 0
22 -163 -158 0
22 -163 -186 0
22 -177 -102 0
22 -177 -116 0
22 -177 -130 0
22 -177 -144 0
22 -177 -158 0
22 -177 -172 0
23 -93 -117 0
23 -93 -131 0
23 -93 -145 0
23 -93 -159 0
23 -93 -173 0
23 -93 -187 0
23 -107 -103 0
23 -107 -131 0
23 -107 -145 0
23 -107 -159 0
23 -107 -173 0
23 -107 -187 0
23 -121 -103 0
23 -121 -117 0
23 -121 -145 0
23 -121 -159 0
23 -121 -173 0
23 -121 -187 0
23 -135 -103 0
23 -135 -117 0
23 -135 -131 0
23 -135 -159 0
23 -135 -173 0
23 -135 -187 0
23 -149 -103 0
23 -149 -117 0
23 -149 -131 0
23 -149 -145 0
23 -149 -173 0
23 -149 -187 0
23 -163 -103 0
23 -163 -117 0
23 -163 -131 0
23 -163 -145 0
23 -163 -159 0
23 -163 -187 0
23 -177 -103 0
23 -177 -117 0
23 -177 -131 0
23 -177 -145 0
23 -177 -159 0
23 -177 -173 0
24 -93 -118 0
24 -93 -132 0
24 -93 -146 0
24 -93 -160 0
24 -93 -174 0
24 -93 -188 0
24 -107 -104 0
24 -107 -132 0
24 -107 -146 0
24 -107 -160 0
24 -107 -174 0
24 -107 -188 0
24 -121 -104 0
24 -121 -118 0
24 -121 -146 0
24 -121 -160 0
24 -121 -174 0
24 -121 -188 0
24 -135 -104 0
24 -135 -118 0
24 -135 -132 0
24 -135 -160 0
24 -135 -174 0
24 -135 -188 0
24 -149 -104 0
24 -149 -118 0
24 -149 -132 0
24 -149 -146 0
24 -149 -174 0
24 -149 -188 0
24 -163 -104 0
24 -163 -118 0
24 -163 -132 0
24 -163 -146 0
24 -163 -160 0
24 -163 -188 0
24 -177 -104 0
24 -177 -118 0
24 -177 -132 0
24 -177 -146 0
24 -177 -160 0
24 -177 -174 0
25 -93 -119 0
25 -93 -133 0
25 -93 -147 0
25 -93 -161 0
25 -93 -175 0
25 -93 -189 0
25 -107 -105 0
25 -107 -133 0
25 -107 -147 0
25 -107 -161 0
25 -107 -175 0
25 -107 -189 0
25 -121 -105 0
25 -121 -119 0
25 -121 -147 0
25 -121 -161 0
25 -121 -175 0
25 -121 -189 0
25 -135 -105 0
25 -135 -119 0
25 -135 -133 0
25 -135 -161 0
25 -135 -175 0
25 -135 -189 0
25 -149 -105 0
25 -149 -119 0
25 -149 -133 0
25 -149 -147 0
25 -149 -175 0
25 -149 -189 0
25 -163 -105 0
25 -163 -119 0
25 -163 -133 0
25 -163 -147 0
25 -163 -161 0
25 -163 -189 0
25 -177 -105 0
25 -177 -119 0
25 -177 -133 0
25 -177 -147 0
25 -177 -161 0
25 -177 -175 0
26 -94 -109 0
26 -94 -123 0
26 -94 -137 0
26 -94 -151 0
26 -94 -165 0
26 -94 -179 0
26 -108 -95 0
26 -108 -123 0
26 -108 -137 0
26 -108 -151 0
26 -108 -165 0
26 -108 -179 0
26 -122 -95 0
26 -122 -109 0
26 -122 -137 0
26 -122 -151 0
26 -122 -165 0
26 -122 -179 0
26 -136 -95 0
26 -136 -109 0
26 -136 -123 0
26 -136 -151 0
26 -136 -165 0
26 -136 -179 0
26 -150 -95 0
26 -150 -109 0
26 -150 -123 0
26 -150 -137 0
26 -150 -165 0
26 -150 -179 0
26 -164 -95 0
26 -164 -109 0
26 -164 -123 0
26 -164 -137 0
26 -164 -151 0
26 -164 -179 0
26 -178 -95 0
26 -178 -109 0
26 -178 -123 0
26 -178 -137 0
26 -178 -151 0
26 -178 -165 0
27 -94 -110 0
27 -94 -124 0
27 -94 -138 0
27 -94 -152 0
27 -94 -166 0
27 -94 -180 0
27 -108 -96 0
27 -108 -124 0
27 -108 -138 0
27 -108 -152 0
27 -108 -166 0
27 -108 -180 0
27 -122 -96 0
27 -122 -110 0
27 -122 -138 0
27 -122 -152 0
27 -122 -166 0
27 -122 -180 0
27 -136 -96 0
27 -136 -110 0
27 -136 -124 0
27 -136 -152 0
27 -136 -166 0
27 -136 -180 0
27 -150 -96 0
27 -150 -110 0
27 -150 -124 0
27 -150 -138 0
27 -150 -166 0
27 -150 -180 0
27 -164 -96 0
27 -164 -110 0
27 -164 -124 0
27 -164 -138 0
27 -164 -152 0
27 -164 -180 0
27 -178 -96 0
27 -178 -110 0
27 -178 -124 0
27 -178 -138 0
27 -178 -152 0
27 -178 -166 0
28 -94 -111 0
28 -94 -125 0
28 -94 -139 0
28 -94 -153 0
28 -94 -167 0
28 -94 -181 0
28 -108 -97 0
28 -108 -125 0
28 -108 -139 0
28 -108 -153 0
28 -108 -167 0
28 -108 -181 0
28 -122 -97 0
28 -122 -111 0
28 -122 -139 0
28 -122 -153 0
28 -122 -167 0
28 -122 -181 0
28 -136 -97 0
28 -136 -111 0
28 -136 -125 0
28 -136 -153 0
28 -136 -167 0
28 -136 -181 0
28 -150 -97 0
28 -150 -111 0
28 -150 -125 0
28 -150 -139 0
28 -150 -167 0
28 -150 -181 0
28 -164 -97 0
28 -164 -111 0
28 -164 -125 0
28 -164 -139 0
28 -164 -153 0
28 -164 -181 0
28 -178 -97 0
28 -178 -111 0
28 -178 -125 0
28 -178 -139 0
28 -178 -153 0
28 -178 -167 0
29 -94 -112 0
29 -94 -126 0
29 -94 -140 0
29 -94 -154 0
29 -94 -168 0
29 -94 -182 0
29 -108 -98 0
29 -108 -126 0
29 -108 -140 0
29 -108 -154 0
29 -108 -168 0
29 -108 -182 0
29 -122 -98 0
29 -122 -112 0
29 -122 -140 0
29 -122 -154 0
29 -122 -168 0
29 -122 -182 0
29 -136 -98 0
29 -136 -112 0
29 -136 -126 0
29 -136 -154 0
29 -136 -168 0
29 -136 -182 0
29 -150 -98 0
29 -150 -112 0
29 -150 -126 0
29 -150 -140 0
29 -150 -168 0
29 -150 -182 0
29 -164 -98 0
29 -164 -112 0
29 -164 -126 0
29 -164 -140 0
29 -164 -154 0
29 -164 -182 0
29 -178 -98 0
29 -178 -112 0
29 -178 -126 0
29 -178 -140 0
29 -178 -154 0
29 -178 -168 0
30 -94 -113 0
30 -94 -127 0
30 -94 -141 0
30 -94 -155 0
30 -94 -169 0
30 -94 -183 0
30 -108 -99 0
30 -108 -127 0
30 -108 -141 0
30 -108 -155 0
30 -108 -169 0
30 -108 -183 0
30 -122 -99 0
30 -122 -113 0
30 -122 -141 0
30 -122 -155 0
30 -122 -169 0
30 -122 -183 0
30 -136 -99 0
30 -136 -113 0
30 -136 -127 0
30 -136 -155 0
30 -136 -169 0
30 -136 -183 0
30 -150 -99 0
30 -150 -113 0
30 -150 -127 0
30 -150 -141 0
30 -150 -169 0
30 -150 -183 0
30 -164 -99 0
30 -164 -113 0
30 -164 -127 0
30 -164 -141 0
30 -164 -155 0
30 -164 -183 0
30 -178 -99 0
30 -178 -113 0
30 -178 -127 0
30 -178 -141 0
30 -178 -155 0
30 -178 -169 0
31 -94 -114 0
31 -94 -128 0
31 -94 -142 0
31 -94 -156 0
31 -94 -170 0
31 -94 -184 0
31 -108 -100 0
31 -108 -128 0
31 -108 -142 0
31 -108 -156 0
31 -108 -170 0
31 -108 -184 0
31 -122 -100 0
31 -122 -114 0
31 -122 -142 0
31 -122 -156 0
31 -122 -170 0
31 -122 -184 0
31 -136 -100 0
31 -136 -114 0
31 -136 -128 0
31 -136 -156 0
31 -136 -170 0
31 -136 -184 0
31 -150 -100 0
31 -150 -114 0
31 -150 -128 0
31 -150 -142 0
31 -150 -170 0
31 -150 -184 0
31 -164 -100 0
31 -164 -114 0
31 -164 -128 0
31 -164 -142 0
31 -164 -156 0
31 -164 -184 0
31 -178 -100 0
31 -178 -114 0
31 -178 -128 0
31 -178 -142 0
31 -178 -156 0
31 -178 -170 0
32 -94 -115 0
32 -94 -129 0
32 -94 -143 0
32 -94 -157 0
32 -94 -171 0
32 -94 -185 0
32 -108 -101 0
32 -108 -129 0
32 -108 -143 0
32 -108 -157 0
32 -108 -171 0
32 -108 -185 0
32 -122 -101 0
32 -122 -115 0
32 -122 -143 0
32 -122 -157 0
32 -122 -171 0
32 -122 -185 0
32 -136 -101 0
32 -136 -115 0
32 -136 -129 0
32 -136 -157 0
32 -136 -171 0
32 -136 -185 0
32 -150 -101 0
32 -150 -115 0
32 -150 -129 0
32 -150 -143 0
32 -150 -171 0
32 -150 -185 0
32 -164 -101 0
32 -164 -115 0
32 -164 -129 0
32 -164 -143 0
32 -164 -157 0
32 -164 -185 0
32 -178 -101 0
32 -178 -115 0
32 -178 -129 0
32 -178 -143 0
32 -178 -157 0
32 -178 -171 0
33 -94 -116 0
33 -94 -130 0
33 -94 -144 0
33 -94 -158 0
33 -94 -172 0
33 -94 -186 0
33 -108 -102 0
33 -108 -130 0
33 -108 -144 0
33 -108 -158 0
33 -108 -172 0
33 -108 -186 0
33 -122 -102 0
33 -122 -116 0
33 -122 -144 0
33 -122 -158 0
33 -122 -172 0
33 -122 -186 0
33 -136 -102 0
33 -136 -116 0
33 -136 -130 0
33 -136 -158 0
33 -136 -172 0
33 -136 -186 0
33 -150 -102 0
33 -150 -116 0
33 -150 -130 0
33 -150 -144 0
33 -150 -172 0
33 -150 -186 0
33 -164 -102 0
33 -164 -116 0
33 -164 -130 0
33 -164 -144 0
33 -164 -158 0
33 -164 -186 0
33 -178 -102 0
33 -178 -116 0
33 -178 -130 0
33 -178 -144 0
33 -178 -158 0
33 -178 -172 0
34 -94 -117 0
34 -94 -131 0
34 -94 -145 0
34 -94 -159 0
34 -94 -173 0
34 -94 -187 0
34 -108 -103 0
34 -108 -131 0
34 -108 -145 0
34 -108 -159 0
34 -108 -173 0
34 -108 -187 0
34 -122 -103 0
34 -122 -117 0
34 -122 -145 0
34 -122 -159 0
34 -122 -173 0
34 -122 -187 0
34 -136 -103 0
34 -136 -117 0
34 -136 -131 0
34 -136 -159 0
34 -136 -173 0
34 -136 -187 0
34 -150 -103 0
34 -150 -117 0
34 -150 -131 0
34 -150 -145 0
34 -150 -173 0
34 -150 -187 0
34 -164 -103 0
34 -164 -117 0
34 -164 -131 0
34 -164 -145 0
34 -164 -159 0
34 -164 -187 0
34 -178 -103 0
34 -178 -117 0
34 -178 -131 0
34 -178 -145 0
34 -178 -159 0
34 -178 -173 0
35 -94 -118 0
35 -94 -132 0
35 -94 -146 0
35 -94 -160 0
35 -94 -174 0
35 -94 -188 0
35 -108 -104 0
35 -108 -132 0
35 -108 -146 0
35 -108 -160 0
35 -108 -174 0
35 -108 -188 0
35 -122 -104 0
35 -122 -118 0
35 -122 -146 0
35 -122 -160 0
35 -122 -174 0
35 -122 -188 0
35 -136 -104 0
35 -136 -118 0
35 -136 -132 0
35 -136 -160 0
35 -136 -174 0
35 -136 -188 0
35 -150 -104 0
35 -150 -118 0
35 -150 -132 0
35 -150 -146 0
35 -150 -174 0
35 -150 -188 0
35 -164 -104 0
35 -164 -118 0
35 -164 -132 0
35 -164 -146 0
35 -164 -160 0
35 -164 -188 0
35 -178 -104 0
35 -178 -118 0
35 -178 -132 0
35 -178 -146 0
35 -178 -160 0
35 -178 -174 0
36 -94 -119 0
36 -94 -133 0
36 -94 -147 0
36 -94 -161 0
36 -94 -175 0
36 -94 -189 0
36 -108 -105 0
36 -108 -133 0
36 -108 -147 0
36 -108 -161 0
36 -108 -175 0
36 -108 -189 0
36 -122 -105 0
36 -122 -119 0
36 -122 -147 0
36 -122 -161 0
36 -122 -175 0
36 -122 -189 0
36 -136 -105 0
36 -136 -119 0
36 -136 -133 0
36 -136 -161 0
36 -136 -175 0
36 -136 -189 0
36 -150 -105 0
36 -150 -119 0
36 -150 -133 0
36 -150 -147 0
36 -150 -175 0
36 -150 -189 0
36 -164 -105 0
36 -164 -119 0
36 -164 -133 0
36 -164 -147 0
36 -164 -161 0
36 -164 -189 0
36 -178 -105 0
36 -178 -119 0
36 -178 -133 0
36 -178 -147 0
36 -178 -161 0
36 -178 -175 0
37 -95 -110 0
37 -95 -124 0
37 -95 -138 0
37 -95 -152 0
37 -95 -166 0
37 -95 -180 0
37 -109 -96 0
37 -109 -124 0
37 -109 -138 0
37 -109 -152 0
37 -109 -166 0
37 -109 -180 0
37 -123 -96 0
37 -123 -110 0
37 -123 -138 0
37 -123 -152 0
37 -123 -166 0
37 -123 -180 0
37 -137 -96 0
37 -137 -110 0
37 -137 -124 0
37 -137 -152 0
37 -137 -166 0
37 -137 -180 0
37 -151 -96 0
37 -151 -110 0
37 -151 -124 0
37 -151 -138 0
37 -151 -166 0
37 -151 -180 0
37 -165 -96 0
37 -165 -110 0
37 -165 -124 0
37 -165 -138 0
37 -165 -152 0
37 -165 -180 0
37 -179 -96 0
37 -179 -110 0
37 -179 -124 0
37 -179 -138 0
37 -179 -152 0
37 -179 -166 0
38 -95 -111 0
38 -95 -125 0
38 -95 -139 0
38 -95 -153 0
38 -95 -167 0
38 -95 -181 0
38 -109 -97 0
38 -109 -125 0
38 -109 -139 0
38 -109 -153 0
38 -109 -167 0
38 -109 -181 0
38 -123 -97 0
38 -123 -111 0
38 -123 -139 0
38 -123 -153 0
38 -123 -167 0
38 -123 -181 0
38 -137 -97 0
38 -137 -111 0
38 -137 -125 0
38 -137 -153 0
38 -137 -167 0
38 -137 -181 0
38 -151 -97 0
38 -151 -111 0
38 -151 -125 0
38 -151 -139 0
38 -151 -167 0
38 -151 -181 0
38 -165 -97 0
38 -165 -111 0
38 -165 -125 0
38 -165 -139 0
38 -165 -153 0
38 -165 -181 0
38 -179 -97 0
38 -179 -111 0
38 -179 -125 0
38 -179 -139 0
38 -179 -153 0
38 -179 -167 0
39 -95 -112 0
39 -95 -126 0
39 -95 -140 0
39 -95 -154 0
39 -95 -168 0
39 -95 -182 0
39 -109 -98 0
39 -109 -126 0
39 -109 -140 0
39 -109 -154 0
39 -109 -168 0
39 -109 -182 0
39 -123 -98 0
39 -123 -112 0
39 -123 -140 0
39 -123 -154 0
39 -123 -168 0
39 -123 -182 0
39 -137 -98 0
39 -137 -112 0
39 -137 -126 0
39 -137 -154 0
39 -137 -168 0
39 -137 -182 0
39 -151 -98 0
39 -151 -112 0
39 -151 -126 0
39 -151 -140 0
39 -151 -168 0
39 -151 -182 0
39 -165 -98 0
39 -165 -112 0
39 -165 -126 0
39 -165 -140 0
39 -165 -154 0
39 -165 -182 0
39 -179 -98 0
39 -179 -112 0
39 -179 -126 0
39 -179 -140 0
39 -179 -154 0
39 -179 -168 0
40 -95 -113 0
40 -95 -127 0
40 -95 -141 0
40 -95 -155 0
40 -95 -169 0
40 -95 -183 0
40 -109 -99 0
40 -109 -127 0
40 -109 -141 0
40 -109 -155 0
40 -109 -169 0
40 -109 -183 0
40 -123 -99 0
40 -123 -113 0
40 -123 -141 0
40 -123 -155 0
40 -123 -169 0
40 -123 -183 0
40 -137 -99 0
40 -137 -113 0
40 -137 -127 0
40 -137 -155 0
40 -137 -169 0
40 -137 -183 0
40 -151 -99 0
40 -151 -113 0
40 -151 -127 0
40 -151 -141 0
40 -151 -169 0
40 -151 -183 0
40 -165 -99 0
40 -165 -113 0
40 -165 -127 0
40 -165 -141 0
40 -165 -155 0
40 -165 -183 0
40 -179 -99 0
40 -179 -113 0
40 -179 -127 0
40 -179 -141 0
40 -179 -155 0
40 -179 -169 0
41 -95 -114 0
41 -95 -128 0
41 -95 -142 0
41 -95 -156 0
41 -95 -170 0
41 -95 -184 0
41 -109 -100 0
41 -109 -128 0
41 -109 -142 0
41 -109 -156 0
41 -109 -170 0
41 -109 -184 0
41 -123 -100 0
41 -123 -114 0
41 -123 -142 0
41 -123 -156 0
41 -123 -170 0
41 -123 -184 0
41 -137 -100 0
41 -137 -114 0
41 -137 -128 0
41 -137 -156 0
41 -137 -170 0
41 -137 -184 0
41 -151 -100 0
41 -151 -114 0
41 -151 -128 0
41 -151 -142 0
41 -151 -170 0
41 -151 -184 0
41 -165 -100 0
41 -165 -114 0
41 -165 -128 0
41 -165 -142 0
41 -165 -156 0
41 -165 -184 0
41 -179 -100 0
41 -179 -114 0
41 -179 -128 0
41 -179 -142 0
41 -179 -156 0
41 -179 -170 0
42 -95 -115 0
42 -95 -129 0
42 -95 -143 0
42 -95 -157 0
42 -95 -171 0
42 -95 -185 0
42 -109 -101 0
42 -109 -129 0
42 -109 -143 0
42 -109 -157 0
42 -109 -171 0
42 -109 -185 0
42 -123 -101 0
42 -123 -115 0
42 -123 -143 0
42 -123 -157 0
42 -123 -171 0
42 -123 -185 0
42 -137 -101 0
42 -137 -115 0
42 -137 -129 0
42 -137 -157 0
42 -137 -171 0
42 -137 -185 0
42 -151 -101 0
42 -151 -115 0
42 -151 -129 0
42 -151 -143 0
42 -151 -171 0
42 -151 -185 0
42 -165 -101 0
42 -165 -115 0
42 -165 -129 0
42 -165 -143 0
42 -165 -157 0
42 -165 -185 0
42 -179 -101 0
42 -179 -115 0
42 -179 -129 0
42 -179 -143 0
42 -179 -157 0
42 -179 -171 0
43 -95 -116 0
43 -95 -130 0
43 -95 -144 0
43 -95 -158 0
43 -95 -172 0
43 -95 -186 0
43 -109 -102 0
43 -109 -130 0
43 -109 -144 0
43 -109 -158 0
43 -109 -172 0
43 -109 -186 0
43 -123 -102 0
43 -123 -116 0
43 -123 -144 0
43 -123 -158 0
43 -123 -172 0
43 -123 -186 0
43 -137 -102 0
43 -137 -116 0
43 -137 -130 0
43 -137 -158 0
43 -137 -172 0
43 -137 -186 0
43 -151 -102 0
43 -151 -116 0
43 -151 -130 0
43 -151 -144 0
43 -151 -172 0
43 -151 -186 0
43 -165 -102 0
43 -165 -116 0
43 -165 -130 0
43 -165 -144 0
43 -165 -158 0
43 -165 -186 0
43 -179 -102 0
43 -179 -116 0
43 -179 -130 0
43 -179 -144 0
43 -179 -158 0
43 -179 -172 0
44 -95 -117 0
44 -95 -131 0
44 -95 -145 0
44 -95 -159 0
44 -95 -173 0
44 -95 -187 0
44 -109 -103 0
44 -109 -131 0
44 -109 -145 0
44 -109 -159 0
44 -109 -173 0
44 -109 -187 0
44 -123 -103 0
44 -123 -117 0
44 -123 -145 0
44 -123 -159 0
44 -123 -173 0
44 -123 -187 0
44 -137 -103 0
44 -137 -117 0
44 -137 -131 0
44 -137 -159 0
44 -137 -173 0
44 -137 -187 0
44 -151 -103 0
44 -151 -117 0
44 -151 -131 0
44 -151 -145 0
44 -151 -173 0
44 -151 -187 0
44 -165 -103 0
44 -165 -117 0
44 -165 -131 0
44 -165 -145 0
44 -165 -159 0
44 -165 -187 0
44 -179 -103 0
44 -179 -117 0
44 -179 -131 0
44 -179 -145 0
44 -179 -159 0
44 -179 -173 0
45 -95 -118 0
45 -95 -132 0
45 -95 -146 0
45 -95 -160 0
45 -95 -174 0
45 -95 -188 0
45 -109 -104 0
45 -109 -132 0
45 -109 -146 0
45 -109 -160 0
45 -109 -174 0
45 -109 -188 0
45 -123 -104 0
45 -123 -118 0
45 -123 -146 0
45 -123 -160 0
45 -123 -174 0
45 -123 -188 0
45 -137 -104 0
45 -137 -118 0
45 -137 -132 0
45 -137 -160 0
45 -137 -174 0
45 -137 -188 0
45 -151 -104 0
45 -151 -118 0
45 -151 -132 0
45 -151 -146 0
45 -151 -174 0
45 -151 -188 0
45 -165 -104 0
45 -165 -118 0
45 -165 -132 0
45 -165 -146 0
45 -165 -160 0
45 -165 -188 0
45 -179 -104 0
45 -179 -118 0
45 -179 -132 0
45 -179 -146 0
45 -179 -160 0
45 -179 -174 0
46 -95 -119 0
46 -95 -133 0
46 -95 -147 0
46 -95 -161 0
46 -95 -175 0
46 -95 -189 0
46 -109 -105 0
46 -109 -133 0
46 -109 -147 0
46 -109 -161 0
46 -109 -175 0
46 -109 -189 0
46 -123 -105 0
46 -123 -119 0
46 -123 -147 0
46 -123 -161 0
46 -123 -175 0
46 -123 -189 0
46 -137 -105 0
46 -137 -119 0
46 -137 -133 0
46 -137 -161 0
46 -137 -175 0
46 -137 -189 0
46 -151 -105 0
46 -151 -119 0
46 -151 -133 0
46 -151 -147 0
46 -151 -175 0
46 -151 -189 0
46 -165 -105 0
46 -165 -119 0
46 -165 -133 0
46 -165 -147 0
46 -165 -161 0
46 -165 -189 0
46 -179 -105 0
46 -179 -119 0
46 -179 -133 0
46 -179 -147 0
46 -179 -161 0
46 -179 -175 0
47 -96 -111 0
47 -96 -125 0
47 -96 -139 0
47 -96 -153 0
47 -96 -167 0
47 -96 -181 0
47 -110 -97 0
47 -110 -125 0
47 -110 -139 0
47 -110 -153 0
47 -110 -167 0
47 -110 -181 0
47 -124 -97 0
47 -124 -111 0
47 -124 -139 0
47 -124 -153 0
47 -124 -167 0
47 -124 -181 0
47 -138 -97 0
47 -138 -111 0
47 -138 -125 0
47 -138 -153 0
47 -138 -167 0
47 -138 -181 0
47 -152 -97 0
47 -152 -111 0
47 -152 -125 0
47 -152 -139 0
47 -152 -167 0
47 -152 -181 0
47 -166 -97 0
47 -166 -111 0
47 -166 -125 0
47 -166 -139 0
47 -166 -153 0
47 -166 -181 0
47 -180 -97 0
47 -180 -111 0
47 -180 -125 0
47 -180 -139 0
47 -180 -153 0
47 -180 -167 0
48 -96 -112 0
48 -96 -126 0
48 -96 -140 0
48 -96 -154 0
48 -96 -168 0
48 -96 -182 0
48 -110 -98 0
48 -110 -126 0
48 -110 -140 0
48 -110 -154 0
48 -110 -168 0
48 -110 -182 0
48 -124 -98 0
48 -124 -112 0
48 -124 -140 0
48 -124 -154 0
48 -124 -168 0
48 -124 -182 0
48 -138 -98 0
48 -138 -112 0
48 -138 -126 0
48 -138 -154 0
48 -138 -168 0
48 -138 -182 0
48 -152 -98 0
48 -152 -112 0
48 -152 -126 0
48 -152 -140 0
48 -152 -168 0
48 -152 -182 0
48 -166 -98 0
48 -166 -112 0
48 -166 -126 0
48 -166 -140 0
48 -166 -154 0
48 -166 -182 0
48 -180 -98 0
48 -180 -112 0
48 -180 -126 0
48 -180 -140 0
48 -180 -154 0
48 -180 -168 0
49 -96 -113 0
49 -96 -127 0
49 -96 -141 0
49 -96 -155 0
49 -96 -169 0
49 -96 -183 0
49 -110 -99 0
49 -110 -127 0
49 -110 -141 0
49 -110 -155 0
49 -110 -169 0
49 -110 -183 0
49 -124 -99 0
49 -124 -113 0
49 -124 -141 0
49 -124 -155 0
49 -124 -169 0
49 -124 -183 0
49 -138 -99 0
49 -138 -113 0
49 -138 -127 0
49 -138 -155 0
49 -138 -169 0
49 -138 -183 0
49 -152 -99 0
49 -152 -113 0
49 -152 -127 0
49 -152 -141 0
49 -152 -169 0
49 -152 -183 0
49 -166 -99 0
49 -166 -113 0
49 -166 -127 0
49 -166 -141 0
49 -166 -155 0
49 -166 -183 0
49 -180 -99 0
49 -180 -113 0
49 -180 -127 0
49 -180 -141 0
49 -180 -155 0
49 -180 -169 0
50 -96 -114 0
50 -96 -128 0
50 -96 -142 0
50 -96 -156 0
50 -96 -170 0
50 -96 -184 0
50 -110 -100 0
50 -110 -128 0
50 -110 -142 0
50 -110 -156 0
50 -110 -170 0
50 -110 -184 0
50 -124 -100 0
50 -124 -114 0
50 -124 -142 0
50 -124 -156 0
50 -124 -170 0
50 -124 -184 0
50 -138 -100 0
50 -138 -114 0
50 -138 -128 0
50 -138 -156 0
50 -138 -170 0
50 -138 -184 0
50 -152 -100 0
50 -152 -114 0
50 -152 -128 0
50 -152 -142 0
50 -152 -170 0
50 -152 -184 0
50 -166 -100 0
50 -166 -114 0
50 -166 -128 0
50 -166 -142 0
50 -166 -156 0
50 -166 -184 0
50 -180 -100 0
50 -180 -114 0
50 -180 -128 0
50 -180 -142 0
50 -180 -156 0
50 -180 -170 0
51 -96 -115 0
51 -96 -129 0
51 -96 -143 0
51 -96 -157 0
51 -96 -171 0
51 -96 -185 0
51 -110 -101 0
51 -110 -129 0
51 -110 -143 0
51 -110 -157 0
51 -110 -171 0
51 -110 -185 0
51 -124 -101 0
51 -124 -115 0
51 -124 -143 0
51 -124 -157 0
51 -124 -171 0
51 -124 -185 0
51 -138 -101 0
51 -138 -115 0
51 -138 -129 0
51 -138 -157 0
51 -138 -171 0
51 -138 -185 0
51 -152 -101 0
51 -152 -115 0
51 -152 -129 0
51 -152 -143 0
51 -152 -171 0
51 -152 -185 0
51 -166 -101 0
51 -166 -115 0
51 -166 -129 0
51 -166 -143 0
51 -166 -157 0
51 -166 -185 0
51 -180 -101 0
51 -180 -115 0
51 -180 -129 0
51 -180 -143 0
51 -180 -157 0
51 -180 -171 0
52 -96 -116 0
52 -96 -130 0
52 -96 -144 0
52 -96 -158 0
52 -96 -172 0
52 -96 -186 0
52 -110 -102 0
52 -110 -130 0
52 -110 -144 0
52 -110 -158 0
52 -110 -172 0
52 -110 -186 0
52 -124 -102 0
52 -124 -116 0
52 -124 -144 0
52 -124 -158 0
52 -124 -172 0
52 -124 -186 0
52 -138 -102 0
52 -138 -116 0
52 -138 -130 0
52 -138 -158 0
52 -138 -172 0
52 -138 -186 0
52 -152 -102 0
52 -152 -116 0
52 -152 -130 0
52 -152 -144 0
52 -152 -172 0
52 -152 -186 0
52 -166 -102 0
52 -166 -116 0
52 -166 -130 0
52 -166 -144 0
52 -166 -158 0
52 -166 -186 0
52 -180 -102 0
52 -180 -116 0
52 -180 -130 0
52 -180 -144 0
52 -180 -158 0
52 -180 -172 0
53 -96 -117 0
53 -96 -131 0
53 -96 -145 0
53 -96 -159 0
53 -96 -173 0
53 -96 -187 0
53 -110 -103 0
53 -110 -131 0
53 -110 -145 0
53 -110 -159 0
53 -110 -173 0
53 -110 -187 0
53 -124 -103 0
53 -124 -117 0
53 -124 -145 0
53 -124 -159 0
53 -124 -173 0
53 -124 -187 0
53 -138 -103 0
53 -138 -117 0
53 -138 -131 0
53 -138 -159 0
53 -138 -173 0
53 -138 -187 0
53 -152 -103 0
53 -152 -117 0
53 -152 -131 0
53 -152 -145 0
53 -152 -173 0
53 -152 -187 0
53 -166 -103 0
53 -166 -117 0
53 -166 -131 0
53 -166 -145 0
53 -166 -159 0
53 -166 -187 0
53 -180 -103 0
53 -180 -117 0
53 -180 -131 0
53 -180 -145 0
53 -180 -159 0
53 -180 -173 0
54 -96 -118 0
54 -96 -132 0
54 -96 -146 0
54 -96 -160 0
54 -96 -174 0
54 -96 -188 0
54 -110 -104 0
54 -110 -132 0
54 -110 -146 0
54 -110 -160 0
54 -110 -174 0
54 -110 -188 0
54 -124 -104 0
54 -124 -118 0
54 -124 -146 0
54 -124 -160 0
54 -124 -174 0
54 -124 -188 0
54 -138 -104 0
54 -138 -118 0
54 -138 -132 0
54 -138 -160 0
54 -138 -174 0
54 -138 -188 0
54 -152 -104 0
54 -152 -118 0
54 -152 -132 0
54 -152 -146 0
54 -152 -174 0
54 -152 -188 0
54 -166 -104 0
54 -166 -118 0
54 -166 -132 0
54 -166 -146 0
54 -166 -160 0
54 -166 -188 0
54 -180 -104 0
54 -180 -118 0
54 -180 -132 0
54 -180 -146 0
54 -180 -160 0
54 -180 -174 0
55 -96 -119 0
55 -96 -133 0
55 -96 -147 0
55 -96 -161 0
55 -96 -175 0
55 -96 -189 0
55 -110 -105 0
55 -110 -133 0
55 -110 -147 0
55 -110 -161 0
55 -110 -175 0
55 -110 -189 0
55 -124 -105 0
55 -124 -119 0
55 -124 -147 0
55 -124 -161 0
55 -124 -175 0
55 -124 -189 0
55 -138 -105 0
55 -138 -119 0
55 -138 -133 0
55 -138 -161 0
55 -138 -175 0
55 -138 -189 0
55 -152 -105 0
55 -152 -119 0
55 -152 -133 0
55 -152 -147 0
55 -152 -175 0
55 -152 -189 0
55 -166 -105 0
55 -166 -119 0
55 -166 -133 0
55 -166 -147 0
55 -166 -161 0
55 -166 -189 0
55 -180 -105 0
55 -180 -119 0
55 -180 -133 0
55 -180 -147 0
55 -180 -161 0
55 -180 -175 0
56 -97 -112 0
56 -97 -126 0
56 -97 -140 0
56 -97 -154 0
56 -97 -168 0
56 -97 -182 0
56 -111 -98 0
56 -111 -126 0
56 -111 -140 0
56 -111 -154 0
56 -111 -168 0
56 -111 -182 0
56 -125 -98 0
56 -125 -112 0
56 -125 -140 0
56 -125 -154 0
56 -125 -168 0
56 -125 -182 0
56 -139 -98 0
56 -139 -112 0
56 -139 -126 0
56 -139 -154 0
56 -139 -168 0
56 -139 -182 0
56 -153 -98 0
56 -153 -112 0
56 -153 -126 0
56 -153 -140 0
56 -153 -168 0
56 -153 -182 0
56 -167 -98 0
56 -167 -112 0
56 -167 -126 0
56 -167 -140 0
56 -167 -154 0
56 -167 -182 0
56 -181 -98 0
56 -181 -112 0
56 -181 -126 0
56 -181 -140 0
56 -181 -154 0
56 -181 -168 0
57 -97 -113 0
57 -97 -127 0
57 -97 -141 0
57 -97 -155 0
57 -97 -169 0
57 -97 -183 0
57 -111 -99 0
57 -111 -127 0
57 -111 -141 0
57 -111 -155 0
57 -111 -169 0
57 -111 -183 0
57 -125 -99 0
57 -125 -113 0
57 -125 -141 0
57 -125 -155 0
57 -125 -169 0
57 -125 -183 0
57 -139 -99 0
57 -139 -113 0
57 -139 -127 0
57 -139 -155 0
57 -139 -169 0
57 -139 -183 0
57 -153 -99 0
57 -153 -113 0
57 -153 -127 0
57 -153 -141 0
57 -153 -169 0
57 -153 -183 0
57 -167 -99 0
57 -167 -113 0
57 -167 -127 0
57 -167 -141 0
57 -167 -155 0
57 -167 -183 0
57 -181 -99 0
57 -181 -113 0
57 -181 -127 0
57 -181 -141 0
57 -181 -155 0
57 -181 -169 0
58 -97 -114 0
58 -97 -128 0
58 -97 -142 0
58 -97 -156 0
58 -97 -170 0
58 -97 -184 0
58 -111 -100 0
58 -111 -128 0
58 -111 -142 0
58 -111 -156 0
58 -111 -170 0
58 -111 -184 0
58 -125 -100 0
58 -125 -114 0
58 -125 -142 0
58 -125 -156 0
58 -125 -170 0
58 -125 -184 0
58 -139 -100 0
58 -139 -114 0
58 -139 -128 0
58 -139 -156 0
58 -139 -170 0
58 -139 -184 0
58 -153 -100 0
58 -153 -114 0
58 -153 -128 0
58 -153 -142 0
58 -153 -170 0
58 -153 -184 0
58 -167 -100 0
58 -167 -114 0
58 -167 -128 0
58 -167 -142 0
58 -167 -156 0
58 -167 -184 0
58 -181 -100 0
58 -181 -114 0
58 -181 -128 0
58 -181 -142 0
58 -181 -156 0
58 -181 -170 0
59 -97 -115 0
59 -97 -129 0
59 -97 -143 0
59 -97 -157 0
59 -97 -171 0
59 -97 -185 0
59 -111 -101 0
59 -111 -129 0
59 -111 -143 0
59 -111 -157 0
59 -111 -171 0
59 -111 -185 0
59 -125 -101 0
59 -125 -115 0
59 -125 -143 0
59 -125 -157 0
59 -125 -171 0
59 -125 -185 0
59 -139 -101 0
59 -139 -115 0
59 -139 -129 0
59 -139 -157 0
59 -139 -171 0
59 -139 -185 0
59 -153 -101 0
59 -153 -115 0
59 -153 -129 0
59 -153 -143 0
59 -153 -171 0
59 -153 -185 0
59 -167 -101 0
59 -167 -115 0
59 -167 -129 0
59 -167 -143 0
59 -167 -157 0
59 -167 -185 0
59 -181 -101 0
59 -181 -115 0
59 -181 -129 0
59 -181 -143 0
59 -181 -157 0
59 -181 -171 0
60 -97 -116 0
60 -97 -130 0
60 -97 -144 0
60 -97 -158 0
60 -97 -172 0
60 -97 -186 0
60 -111 -102 0
60 -111 -130 0
60 -111 -144 0
60 -111 -158 0
60 -111 -172 0
60 -111 -186 0
60 -125 -102 0
60 -125 -116 0
60 -125 -144 0
60 -125 -158 0
60 -125 -172 0
60 -125 -186 0
60 -139 -102 0
60 -139 -116 0
60 -139 -130 0
60 -139 -158 0
60 -139 -172 0
60 -139 -186 0
60 -153 -102 0
60 -153 -116 0
60 -153 -130 0
60 -153 -144 0
60 -153 -172 0
60 -153 -186 0
60 -167 -102 0
60 -167 -116 0
60 -167 -130 0
60 -167 -144 0
60 -167 -158 0
60 -167 -186 0
60 -181 -102 0
60 -181 -116 0
60 -181 -130 0
60 -181 -144 0
60 -181 -158 0
60 -181 -172 0
61 -97 -117 0
61 -97 -131 0
61 -97 -145 0
61 -97 -159 0
61 -97 -173 0
61 -97 -187 0
61 -111 -103 0
61 -111 -131 0
61 -111 -145 0
61 -111 -159 0
61 -111 -173 0
61 -111 -187 0
61 -125 -103 0
61 -125 -117 0
61 -125 -145 0
61 -125 -159 0
61 -125 -173 0
61 -125 -187 0
61 -139 -103 0
61 -139 -117 0
61 -139 -131 0
61 -139 -159 0
61 -139 -173 0
61 -139 -187 0
61 -153 -103 0
61 -153 -117 0
61 -153 -131 0
61 -153 -145 0
61 -153 -173 0
61 -153 -187 0
61 -167 -103 0
61 -167 -117 0
61 -167 -131 0
61 -167 -145 0
61 -167 -159 0
61 -167 -187 0
61 -181 -103 0
61 -181 -117 0
61 -181 -131 0
61 -181 -145 0
61 -181 -159 0
61 -181 -173 0
62 -97 -118 0
62 -97 -132 0
62 -97 -146 0
62 -97 -160 0
62 -97 -174 0
62 -97 -188 0
62 -111 -104 0
62 -111 -132 0
62 -111 -146 0
62 -111 -160 0
62 -111 -174 0
62 -111 -188 0
62 -125 -104 0
62 -125 -118 0
62 -125 -146 0
62 -125 -160 0
62 -125 -174 0
62 -125 -188 0
62 -139 -104 0
62 -139 -118 0
62 -139 -132 0
62 -139 -160 0
62 -139 -174 0
62 -139 -188 0
62 -153 -104 0
62 -153 -118 0
62 -153 -132 0
62 -153 -146 0
62 -153 -174 0
62 -153 -188 0
62 -167 -104 0
62 -167 -118 0
62 -167 -132 0
62 -167 -146 0
62 -167 -160 0
62 -167 -188 0
62 -181 -104 0
62 -181 -118 0
62 -181 -132 0
62 -181 -146 0
62 -181 -160 0
62 -181 -174 0
63 -97 -119 0
63 -97 -133 0
63 -97 -147 0
63 -97 -161 0
63 -97 -175 0
63 -97 -189 0
63 -111 -105 0
63 -111 -133 0
63 -111 -147 0
63 -111 -161 0
63 -111 -175 0
63 -111 -189 0
63 -125 -105 0
63 -125 -119 0
63 -125 -147 0
63 -125 -161 0
63 -125 -175 0
63 -125 -189 0
63 -139 -105 0
63 -139 -119 0
63 -139 -133 0
63 -139 -161 0
63 -139 -175 0
63 -139 -189 0
63 -153 -105 0
63 -153 -119 0
63 -153 -133 0
63 -153 -147 0
63 -153 -175 0
63 -153 -189 0
63 -167 -105 0
63 -167 -119 0
63 -167 -133 0
63 -167 -147 0
63 -167 -161 0
63 -167 -189 0
63 -181 -105 0
63 -181 -119 0
63 -181 -133 0
63 -181 -147 0
63 -181 -161 0
63 -181 -175 0
64 -98 -113 0
64 -98 -127 0
64 -98 -141 0
64 -98 -155 0
64 -98 -169 0
64 -98 -183 0
64 -112 -99 0
64 -112 -127 0
64 -112 -141 0
64 -112 -155 0
64 -112 -169 0
64 -112 -183 0
64 -126 -99 0
64 -126 -113 0
64 -126 -141 0
64 -126 -155 0
64 -126 -169 0
64 -126 -183 0
64 -140 -99 0
64 -140 -113 0
64 -140 -127 0
64 -140 -155 0
64 -140 -169 0
64 -140 -183 0
64 -154 -99 0
64 -154 -113 0
64 -154 -127 0
64 -154 -141 0
64 -154 -169 0
64 -154 -183 0
64 -168 -99 0
64 -168 -113 0
64 -168 -127 0
64 -168 -141 0
64 -168 -155 0
64 -168 -183 0
64 -182 -99 0
64 -182 -113 0
64 -182 -127 0
64 -182 -141 0
64 -182 -155 0
64 -182 -169 0
65 -98 -114 0
65 -98 -128 0
65 -98 -142 0
65 -98 -156 0
65 -98 -170 0
65 -98 -184 0
65 -112 -100 0
65 -112 -128 0
65 -112 -142 0
65 -112 -156 0
65 -112 -170 0
65 -112 -184 0
65 -126 -100 0
65 -126 -114 0
65 -126 -142 0
65 -126 -156 0
65 -126 -170 0
65 -126 -184 0
65 -140 -100 0
65 -140 -114 0
65 -140 -128 0
65 -140 -156 0
65 -140 -170 0
65 -140 -184 0
65 -154 -100 0
65 -154 -114 0
65 -154 -128 0
65 -154 -142 0
65 -154 -170 0
65 -154 -184 0
65 -168 -100 0
65 -168 -114 0
65 -168 -128 0
65 -168 -142 0
65 -168 -156 0
65 -168 -184 0
65 -182 -100 0
65 -182 -114 0
65 -182 -128 0
65 -182 -142 0
65 -182 -156 0
65 -182 -170 0
66 -98 -115 0
66 -98 -129 0
66 -98 -143 0
66 -98 -157 0
66 -98 -171 0
66 -98 -185 0
66 -112 -101 0
66 -112 -129 0
66 -112 -143 0
66 -112 -157 0
66 -112 -171 0
66 -112 -185 0
66 -126 -101 0
66 -126 -115 0
66 -126 -143 0
66 -126 -157 0
66 -126 -171 0
66 -126 -185 0
66 -140 -101 0
66 -140 -115 0
66 -140 -129 0
66 -140 -157 0
66 -140 -171 0
66 -140 -185 0
66 -154 -101 0
66 -154 -115 0
66 -154 -129 0
66 -154 -143 0
66 -154 -171 0
66 -154 -185 0
66 -168 -101 0
66 -168 -115 0
66 -168 -129 0
66 -168 -143 0
66 -168 -157 0
66 -168 -185 0
66 -182 -101 0
66 -182 -115 0
66 -182 -129 0
66 -182 -143 0
66 -182 -157 0
66 -182 -171 0
67 -98 -116 0
67 -98 -130 0
67 -98 -144 0
67 -98 -158 0
67 -98 -172 0
67 -98 -186 0
67 -112 -102 0
67 -112 -130 0
67 -112 -144 0
67 -112 -158 0
67 -112 -172 0
67 -112 -186 0
67 -126 -102 0
67 -126 -116 0
67 -126 -144 0
67 -126 -158 0
67 -126 -172 0
67 -126 -186 0
67 -140 -102 0
67 -140 -116 0
67 -140 -130 0
67 -140 -158 0
67 -140 -172 0
67 -140 -186 0
67 -154 -102 0
67 -154 -116 0
67 -154 -130 0
67 -154 -144 0
67 -154 -172 0
67 -154 -186 0
67 -168 -102 0
67 -168 -116 0
67 -168 -130 0
67 -168 -144 0
67 -168 -158 0
67 -168 -186 0
67 -182 -102 0
67 -182 -116 0
67 -182 -130 0
67 -182 -144 0
67 -182 -158 0
67 -182 -172 0
68 -98 -117 0
68 -98 -131 0
68 -98 -145 0
68 -98 -159 0
68 -98 -173 0
68 -98 -187 0
68 -112 -103 0
68 -112 -131 0
68 -112 -145 0
68 -112 -159 0
68 -112 -173 0
68 -112 -187 0
68 -126 -103 0
68 -126 -117 0
68 -126 -145 0
68 -126 -159 0
68 -126 -173 0
68 -126 -187 0
68 -140 -103 0
68 -140 -117 0
68 -140 -131 0
68 -140 -159 0
68 -140 -173 0
68 -140 -187 0
68 -154 -103 0
68 -154 -117 0
68 -154 -131 0
68 -154 -145 0
68 -154 -173 0
68 -154 -187 0
68 -168 -103 0
68 -168 -117 0
68 -168 -131 0
68 -168 -145 0
68 -168 -159 0
68 -168 -187 0
68 -182 -103 0
68 -182 -117 0
68 -182 -131 0
68 -182 -145 0
68 -182 -159 0
68 -182 -173 0
69 -98 -118 0
69 -98 -132 0
69 -98 -146 0
69 -98 -160 0
69 -98 -174 0
69 -98 -188 0
69 -112 -104 0
69 -112 -132 0
69 -112 -146 0
69 -112 -160 0
69 -112 -174 0
69 -112 -188 0
69 -126 -104 0
69 -126 -118 0
69 -126 -146 0
69 -126 -160 0
69 -126 -174 0
69 -126 -188 0
69 -140 -104 0
69 -140 -118 0
69 -140 -132 0
69 -140 -160 0
69 -140 -174 0
69 -140 -188 0
69 -154 -104 0
69 -154 -118 0
69 -154 -132 0
69 -154 -146 0
69 -154 -174 0
69 -154 -188 0
69 -168 -104 0
69 -168 -118 0
69 -168 -132 0
69 -168 -146 0
69 -168 -160 0
69 -168 -188 0
69 -182 -104 0
69 -182 -118 0
69 -182 -132 0
69 -182 -146 0
69 -182 -160 0
69 -182 -174 0
70 -98 -119 0
70 -98 -133 0
70 -98 -147 0
70 -98 -161 0
70 -98 -175 0
70 -98 -189 0
70 -112 -105 0
70 -112 -133 0
70 -112 -147 0
70 -112 -161 0
70 -112 -175 0
70 -112 -189 0
70 -126 -105 0
70 -126 -119 0
70 -126 -147 0
70 -126 -161 0
70 -126 -175 0
70 -126 -189 0
70 -140 -105 0
70 -140 -119 0
70 -140 -133 0
70 -140 -161 0
70 -140 -175 0
70 -140 -189 0
70 -154 -105 0
70 -154 -119 0
70 -154 -133 0
70 -154 -147 0
70 -154 -175 0
70 -154 -189 0
70 -168 -105 0
70 -168 -119 0
70 -168 -133 0
70 -168 -147 0
70 -168 -161 0
70 -168 -189 0
70 -182 -105 0
70 -182 -119 0
70 -182 -133 0
70 -182 -147 0
70 -182 -161 0
70 -182 -175 0
71 -99 -114 0
71 -99 -128 0
71 -99 -142 0
71 -99 -156 0
71 -99 -170 0
71 -99 -184 0
71 -113 -100 0
71 -113 -128 0
71 -113 -142 0
71 -113 -156 0
71 -113 -170 0
71 -113 -184 0
71 -127 -100 0
71 -127 -114 0
71 -127 -142 0
71 -127 -156 0
71 -127 -170 0
71 -127 -184 0
71 -141 -100 0
71 -141 -114 0
71 -141 -128 0
71 -141 -156 0
71 -141 -170 0
71 -141 -184 0
71 -155 -100 0
71 -155 -114 0
71 -155 -128 0
71 -155 -142 0
71 -155 -170 0
71 -155 -184 0
71 -169 -100 0
71 -169 -114 0
71 -169 -128 0
71 -169 -142 0
71 -169 -156 0
71 -169 -184 0
71 -183 -100 0
71 -183 -114 0
71 -183 -128 0
71 -183 -142 0
71 -183 -156 0
71 -183 -170 0
72 -99 -115 0
72 -99 -129 0
72 -99 -143 0
72 -99 -157 0
72 -99 -171 0
72 -99 -185 0
72 -113 -101 0
72 -113 -129 0
72 -113 -143 0
72 -113 -157 0
72 -113 -171 0
72 -113 -185 0
72 -127 -101 0
72 -127 -115 0
72 -127 -143 0
72 -127 -157 0
72 -127 -171 0
72 -127 -185 0
72 -141 -101 0
72 -141 -115 0
72 -141 -129 0
72 -141 -157 0
72 -141 -171 0
72 -141 -185 0
72 -155 -101 0
72 -155 -115 0
72 -155 -129 0
72 -155 -143 0
72 -155 -171 0
72 -155 -185 0
72 -169 -101 0
72 -169 -115 0
72 -169 -129 0
72 -169 -143 0
72 -169 -157 0
72 -169 -185 0
72 -183 -101 0
72 -183 -115 0
72 -183 -129 0
72 -183 -143 0
72 -183 -157 0
72 -183 -171 0
73 -99 -116 0
73 -99 -130 0
73 -99 -144 0
73 -99 -158 0
73 -99 -172 0
73 -99 -186 0
73 -113 -102 0
73 -113 -130 0
73 -113 -144 0
73 -113 -158 0
73 -113 -172 0
73 -113 -186 0
73 -127 -102 0
73 -127 -116 0
73 -127 -144 0
73 -127 -158 0
73 -127 -172 0
73 -127 -186 0
73 -141 -102 0
73 -141 -116 0
73 -141 -130 0
73 -141 -158 0
73 -141 -172 0
73 -141 -186 0
73 -155 -102 0
73 -155 -116 0
73 -155 -130 0
73 -155 -144 0
73 -155 -172 0
73 -155 -186 0
73 -169 -102 0
73 -169 -116 0
73 -169 -130 0
73 -169 -144 0
73 -169 -158 0
73 -169 -186 0
73 -183 -102 0
73 -183 -116 0
73 -183 -130 0
73 -183 -144 0
73 -183 -158 0
73 -183 -172 0
74 -99 -117 0
74 -99 -131 0
74 -99 -145 0
74 -99 -159 0
74 -99 -173 0
74 -99 -187 0
74 -113 -103 0
74 -113 -131 0
74 -113 -145 0
74 -113 -159 0
74 -113 -173 0
74 -113 -187 0
74 -127 -103 0
74 -127 -117 0
74 -127 -145 0
74 -127 -159 0
74 -127 -173 0
74 -127 -187 0
74 -141 -103 0
74 -141 -117 0
74 -141 -131 0
74 -141 -159 0
74 -141 -173 0
74 -141 -187 0
74 -155 -103 0
74 -155 -117 0
74 -155 -131 0
74 -155 -145 0
74 -155 -173 0
74 -155 -187 0
74 -169 -103 0
74 -169 -117 0
74 -169 -131 0
74 -169 -145 0
74 -169 -159 0
74 -169 -187 0
74 -183 -103 0
74 -183 -117 0
74 -183 -131 0
74 -183 -145 0
74 -183 -159 0
74 -183 -173 0
75 -99 -118 0
75 -99 -132 0
75 -99 -146 0
75 -99 -160 0
75 -99 -174 0
75 -99 -188 0
75 -113 -104 0
75 -113 -132 0
75 -113 -146 0
75 -113 -160 0
75 -113 -174 0
75 -113 -188 0
75 -127 -104 0
75 -127 -118 0
75 -127 -146 0
75 -127 -160 0
75 -127 -174 0
75 -127 -188 0
75 -141 -104 0
75 -141 -118 0
75 -141 -132 0
75 -141 -160 0
75 -141 -174 0
75 -141 -188 0
75 -155 -104 0
75 -155 -118 0
75 -155 -132 0
75 -155 -146 0
75 -155 -174 0
75 -155 -188 0
75 -169 -104 0
75 -169 -118 0
75 -169 -132 0
75 -169 -146 0
75 -169 -160 0
75 -169 -188 0
75 -183 -104 0
75 -183 -118 0
75 -183 -132 0
75 -183 -146 0
75 -183 -160 0
75 -183 -174 0
76 -99 -119 0
76 -99 -133 0
76 -99 -147 0
76 -99 -161 0
76 -99 -175 0
76 -99 -189 0
76 -113 -105 0
76 -113 -133 0
76 -113 -147 0
76 -113 -161 0
76 -113 -175 0
76 -113 -189 0
76 -127 -105 0
76 -127 -119 0
76 -127 -147 0
76 -127 -161 0
76 -127 -175 0
76 -127 -189 0
76 -141 -105 0
76 -141 -119 0
76 -141 -133 0
76 -141 -161 0
76 -141 -175 0
76 -141 -189 0
76 -155 -105 0
76 -155 -119 0
76 -155 -133 0
76 -155 -147 0
76 -155 -175 0
76 -155 -189 0
76 -169 -105 0
76 -169 -119 0
76 -169 -133 0
76 -169 -147 0
76 -169 -161 0
76 -169 -189 0
76 -183 -105 0
76 -183 -119 0
76 -183 -133 0
76 -183 -147 0
76 -183 -161 0
76 -183 -175 0
77 -100 -115 0
77 -100 -129 0
77 -100 -143 0
77 -100 -157 0
77 -100 -171 0
77 -100 -185 0
77 -114 -101 0
77 -114 -129 0
77 -114 -143 0
77 -114 -157 0
77 -114 -171 0
77 -114 -185 0
77 -128 -101 0
77 -128 -115 0
77 -128 -143 0
77 -128 -157 0
77 -128 -171 0
77 -128 -185 0
77 -142 -101 0
77 -142 -115 0
77 -142 -129 0
77 -142 -157 0
77 -142 -171 0
77 -142 -185 0
77 -156 -101 0
77 -156 -115 0
77 -156 -129 0
77 -156 -143 0
77 -156 -171 0
77 -156 -185 0
77 -170 -101 0
77 -170 -115 0
77 -170 -129 0
77 -170 -143 0
77 -170 -157 0
77 -170 -185 0
77 -184 -101 0
77 -184 -115 0
77 -184 -129 0
77 -184 -143 0
77 -184 -157 0
77 -184 -171 0
78 -100 -116 0
78 -100 -130 0
78 -100 -144 0
78 -100 -158 0
78 -100 -172 0
78 -100 -186 0
78 -114 -102 0
78 -114 -130 0
78 -114 -144 0
78 -114 -158 0
78 -114 -172 0
78 -114 -186 0
78 -128 -102 0
78 -128 -116 0
78 -128 -144 0
78 -128 -158 0
78 -128 -172 0
78 -128 -186 0
78 -142 -102 0
78 -142 -116 0
78 -142 -130 0
78 -142 -158 0
78 -142 -172 0
78 -142 -186 0
78 -156 -102 0
78 -156 -116 0
78 -156 -130 0
78 -156 -144 0
78 -156 -172 0
78 -156 -186 0
78 -170 -102 0
78 -170 -116 0
78 -170 -130 0
78 -170 -144 0
78 -170 -158 0
78 -170 -186 0
78 -184 -102 0
78 -184 -116 0
78 -184 -130 0
78 -184 -144 0
78 -184 -158 0
78 -184 -172 0
79 -100 -117 0
79 -100 -131 0
79 -100 -145 0
79 -100 -159 0
79 -100 -173 0
79 -100 -187 0
79 -114 -103 0
79 -114 -131 0
79 -114 -145 0
79 -114 -159 0
79 -114 -173 0
79 -114 -187 0
79 -128 -103 0
79 -128 -117 0
79 -128 -145 0
79 -128 -159 0
79 -128 -173 0
79 -128 -187 0
79 -142 -103 0
79 -142 -117 0
79 -142 -131 0
79 -142 -159 0
79 -142 -173 0
79 -142 -187 0
79 -156 -103 0
79 -156 -117 0
79 -156 -131 0
79 -156 -145 0
79 -156 -173 0
79 -156 -187 0
79 -170 -103 0
79 -170 -117 0
79 -170 -131 0
79 -170 -145 0
79 -170 -159 0
79 -170 -187 0
79 -184 -103 0
79 -184 -117 0
79 -184 -131 0
79 -184 -145 0
79 -184 -159 0
79 -184 -173 0
80 -100 -118 0
80 -100 -132 0
80 -100 -146 0
80 -100 -160 0
80 -100 -174 0
80 -100 -188 0
80 -114 -104 0
80 -114 -132 0
80 -114 -146 0
80 -114 -160 0
80 -114 -174 0
80 -114 -188 0
80 -128 -104 0
80 -128 -118 0
80 -128 -146 0
80 -128 -160 0
80 -128 -174 0
80 -128 -188 0
80 -142 -104 0
80 -142 -118 0
80 -142 -132 0
80 -142 -160 0
80 -142 -174 0
80 -142 -188 0
80 -156 -104 0
80 -156 -118 0
80 -156 -132 0
80 -156 -146 0
80 -156 -174 0
80 -156 -188 0
80 -170 -104 0
80 -170 -118 0
80 -170 -132 0
80 -170 -146 0
80 -170 -160 0
80 -170 -188 0
80 -184 -104 0
80 -184 -118 0
80 -184 -132 0
80 -184 -146 0
80 -184 -160 0
80 -184 -174 0
81 -100 -119 0
81 -100 -133 0
81 -100 -147 0
81 -100 -161 0
81 -100 -175 0
81 -100 -189 0
81 -114 -105 0
81 -114 -133 0
81 -114 -147 0
81 -114 -161 0
81 -114 -175 0
81 -114 -189 0
81 -128 -105 0
81 -128 -119 0
81 -128 -147 0
81 -128 -161 0
81 -128 -175 0
81 -128 -189 0
81 -142 -105 0
81 -142 -119 0
81 -142 -133 0
81 -142 -161 0
81 -142 -175 0
81 -142 -189 0
81 -156 -105 0
81 -156 -119 0
81 -156 -133 0
81 -156 -147 0
81 -156 -175 0
81 -156 -189 0
81 -170 -105 0
81 -170 -119 0
81 -170 -133 0
81 -170 -147 0
81 -170 -161 0
81 -170 -189 0
81 -184 -105 0
81 -184 -119 0
81 -184 -133 0
81 -184 -147 0
81 -184 -161 0
81 -184 -175 0
82 -101 -116 0
82 -101 -130 0
82 -101 -144 0
82 -101 -158 0
82 -101 -172 0
82 -101 -186 0
82 -115 -102 0
82 -115 -130 0
82 -115 -144 0
82 -115 -158 0
82 -115 -172 0
82 -115 -186 0
82 -129 -102 0
82 -129 -116 0
82 -129 -144 0
82 -129 -158 0
82 -129 -172 0
82 -129 -186 0
82 -143 -102 0
82 -143 -116 0
82 -143 -130 0
82 -143 -158 0
82 -143 -172 0
82 -143 -186 0
82 -157 -102 0
82 -157 -116 0
82 -157 -130 0
82 -157 -144 0
82 -157 -172 0
82 -157 -186 0
82 -171 -102 0
82 -171 -116 0
82 -171 -130 0
82 -171 -144 0
82 -171 -158 0
82 -171 -186 0
82 -185 -102 0
82 -185 -116 0
82 -185 -130 0
82 -185 -144 0
82 -185 -158 0
82 -185 -172 0
83 -101 -117 0
83 -101 -131 0
83 -101 -145 0
83 -101 -159 0
83 -101 -173 0
83 -101 -187 0
83 -115 -103 0
83 -115 -131 0
83 -115 -145 0
83 -115 -159 0
83 -115 -173 0
83 -115 -187 0
83 -129 -103 0
83 -129 -117 0
83 -129 -145 0
83 -129 -159 0
83 -129 -173 0
83 -129 -187 0
83 -143 -103 0
83 -143 -117 0
83 -143 -131 0
83 -143 -159 0
83 -143 -173 0
83 -143 -187 0
83 -157 -103 0
83 -157 -117 0
83 -157 -131 0
83 -157 -145 0
83 -157 -173 0
83 -157 -187 0
83 -171 -103 0
83 -171 -117 0
83 -171 -131 0
83 -171 -145 0
83 -171 -159 0
83 -171 -187 0
83 -185 -103 0
83 -185 -117 0
83 -185 -131 0
83 -185 -145 0
83 -185 -159 0
83 -185 -173 0
84 -101 -118 0
84 -101 -132 0
84 -101 -146 0
84 -101 -160 0
84 -101 -174 0
84 -101 -188 0
84 -115 -104 0
84 -115 -132 0
84 -115 -146 0
84 -115 -160 0
84 -115 -174 0
84 -115 -188 0
84 -129 -104 0
84 -129 -118 0
84 -129 -146 0
84 -129 -160 0
84 -129 -174 0
84 -129 -188 0
84 -143 -104 0
84 -143 -118 0
84 -143 -132 0
84 -143 -160 0
84 -143 -174 0
84 -143 -188 0
84 -157 -104 0
84 -157 -118 0
84 -157 -132 0
84 -157 -146 0
84 -157 -174 0
84 -157 -188 0
84 -171 -104 0
84 -171 -118 0
84 -171 -132 0
84 -171 -146 0
84 -171 -160 0
84 -171 -188 0
84 -185 -104 0
84 -185 -118 0
84 -185 -132 0
84 -185 -146 0
84 -185 -160 0
84 -185 -174 0
85 -101 -119 0
85 -101 -133 0
85 -101 -147 0
85 -101 -161 0
85 -101 -175 0
85 -101 -189 0
85 -115 -105 0
85 -115 -133 0
85 -115 -147 0
85 -115 -161 0
85 -115 -175 0
85 -115 -189 0
85 -129 -105 0
85 -129 -119 0
85 -129 -147 0
85 -129 -161 0
85 -129 -175 0
85 -129 -189 0
85 -143 -105 0
85 -143 -119 0
85 -143 -133 0
85 -143 -161 0
85 -143 -175 0
85 -143 -189 0
85 -157 -105 0
85 -157 -119 0
85 -157 -133 0
85 -157 -147 0
85 -157 -175 0
85 -157 -189 0
85 -171 -105 0
85 -171 -119 0
85 -171 -133 0
85 -171 -147 0
85 -171 -161 0
85 -171 -189 0
85 -185 -105 0
85 -185 -119 0
85 -185 -133 0
85 -185 -147 0
85 -185 -161 0
85 -185 -175 0
86 -102 -117 0
86 -102 -131 0
86 -102 -145 0
86 -102 -159 0
86 -102 -173 0
86 -102 -187 0
86 -116 -103 0
86 -116 -131 0
86 -116 -145 0
86 -116 -159 0
86 -116 -173 0
86 -116 -187 0
86 -130 -103 0
86 -130 -117 0
86 -130 -145 0
86 -130 -159 0
86 -130 -173 0
86 -130 -187 0
86 -144 -103 0
86 -144 -117 0
86 -144 -131 0
86 -144 -159 0
86 -144 -173 0
86 -144 -187 0
86 -158 -103 0
86 -158 -117 0
86 -158 -131 0
86 -158 -145 0
86 -158 -173 0
86 -158 -187 0
86 -172 -103 0
86 -172 -117 0
86 -172 -131 0
86 -172 -145 0
86 -172 -159 0
86 -172 -187 0
86 -186 -103 0
86 -186 -117 0
86 -186 -131 0
86 -186 -145 0
86 -186 -159 0
86 -186 -173 0
87 -102 -118 0
87 -102 -132 0
87 -102 -146 0
87 -102 -160 0
87 -102 -174 0
87 -102 -188 0
87 -116 -104 0
87 -116 -132 0
87 -116 -146 0
87 -116 -160 0
87 -116 -174 0
87 -116 -188 0
87 -130 -104 0
87 -130 -118 0
87 -130 -146 0
87 -130 -160 0
87 -130 -174 0
87 -130 -188 0
87 -144 -104 0
87 -144 -118 0
87 -144 -132 0
87 -144 -160 0
87 -144 -174 0
87 -144 -188 0
87 -158 -104 0
87 -158 -118 0
87 -158 -132 0
87 -158 -146 0
87 -158 -174 0
87 -158 -188 0
87 -172 -104 0
87 -172 -118 0
87 -172 -132 0
87 -172 -146 0
87 -172 -160 0
87 -172 -188 0
87 -186 -104 0
87 -186 -118 0
87 -186 -132 0
87 -186 -146 0
87 -186 -160 0
87 -186 -174 0
88 -102 -119 0
88 -102 -133 0
88 -102 -147 0
88 -102 -161 0
88 -102 -175 0
88 -102 -189 0
88 -116 -105 0
88 -116 -133 0
88 -116 -147 0
88 -116 -161 0
88 -116 -175 0
88 -116 -189 0
88 -130 -105 0
88 -130 -119 0
88 -130 -147 0
88 -130 -161 0
88 -130 -175 0
88 -130 -189 0
88 -144 -105 0
88 -144 -119 0
88 -144 -133 0
88 -144 -161 0
88 -144 -175 0
88 -144 -189 0
88 -158 -105 0
88 -158 -119 0
88 -158 -133 0
88 -158 -147 0
88 -158 -175 0
88 -158 -189 0
88 -172 -105 0
88 -172 -119 0
88 -172 -133 0
88 -172 -147 0
88 -172 -161 0
88 -172 -189 0
88 -186 -105 0
88 -186 -119 0
88 -186 -133 0
88 -186 -147 0
88 -186 -161 0
88 -186 -175 0
89 -103 -118 0
89 -103 -132 0
89 -103 -146 0
89 -103 -160 0
89 -103 -174 0
89 -103 -188 0
89 -117 -104 0
89 -117 -132 0
89 -117 -146 0
89 -117 -160 0
89 -117 -174 0
89 -117 -188 0
89 -131 -104 0
89 -131 -118 0
89 -131 -146 0
89 -131 -160 0
89 -131 -174 0
89 -131 -188 0
89 -145 -104 0
89 -145 -118 0
89 -145 -132 0
89 -145 -160 0
89 -145 -174 0
89 -145 -188 0
89 -159 -104 0
89 -159 -118 0
89 -159 -132 0
89 -159 -146 0
89 -159 -174 0
89 -159 -188 0
89 -173 -104 0
89 -173 -118 0
89 -173 -132 0
89 -173 -146 0
89 -173 -160 0
89 -173 -188 0
89 -187 -104 0
89 -187 -118 0
89 -187 -132 0
89 -187 -146 0
89 -187 -160 0
89 -187 -174 0
90 -103 -119 0
90 -103 -133 0
90 -103 -147 0
90 -103 -161 0
90 -103 -175 0
90 -103 -189 0
90 -117 -105 0
90 -117 -133 0
90 -117 -147 0
90 -117 -161 0
90 -117 -175 0
90 -117 -189 0
90 -131 -105 0
90 -131 -119 0
90 -131 -147 0
90 -131 -161 0
90 -131 -175 0
90 -131 -189 0
90 -145 -105 0
90 -145 -119 0
90 -145 -133 0
90 -145 -161 0
90 -145 -175 0
90 -145 -189 0
90 -159 -105 0
90 -159 -119 0
90 -159 -133 0
90 -159 -147 0
90 -159 -175 0
90 -159 -189 0
90 -173 -105 0
90 -173 -119 0
90 -173 -133 0
90 -173 -147 0
90 -173 -161 0
90 -173 -189 0
90 -187 -105 0
90 -187 -119 0
90 -187 -133 0
90 -187 -147 0
90 -187 -161 0
90 -187 -175 0
91 -104 -119 0
91 -104 -133 0
91 -104 -147 0
91 -104 -161 0
91 -104 -175 0
91 -104 -189 0
91 -118 -105 0
91 -118 -133 0
91 -118 -147 0
91 -118 -161 0
91 -118 -175 0
91 -118 -189 0
91 -132 -105 0
91 -132 -119 0
91 -132 -147 0
91 -132 -161 0
91 -132 -175 0
91 -132 -189 0
91 -146 -105 0
91 -146 -119 0
91 -146 -133 0
91 -146 -161 0
91 -146 -175 0
91 -146 -189 0
91 -160 -105 0
91 -160 -119 0
91 -160 -133 0
91 -160 -147 0
91 -160 -175 0
91 -160 -189 0
91 -174 -105 0
91 -174 -119 0
91 -174 -133 0
91 -174 -147 0
91 -174 -161 0
91 -174 -189 0
91 -188 -105 0
91 -188 -119 0
91 -188 -133 0
91 -188 -147 0
91 -188 -161 0
91 -188 -175 0
-190 -191 0
-190 -192 0
-190 -193 0
-190 -194 0
-190 -195 0
-191 -192 0
-191 -193 0
-191 -194 0
-191 -195 0
-192 -193 0
-192 -194 0
-192 -195 0
-193 -194 0
-193 -195 0
-194 -195 0
190 191 192 193 194 195 0
-196 -197 0
-196 -198 0
-196 -199 0
-196 -200 0
-196 -201 0
-197 -198 0
-197 -199 0
-197 -200 0
-197 -201 0
-198 -199 0
-198 -200 0
-198 -201 0
-199 -200 0
-199 -201 0
-200 -201 0
196 197 198 199 200 201 0
-202 -203 0
-202 -204 0
-202 -205 0
-202 -206 0
-202 -207 0
-203 -204 0
-203 -205 0
-203 -206 0
-203 -207 0
-204 -205 0
-204 -206 0
-204 -207 0
-205 -206 0
-205 -207 0
-206 -207 0
202 203 204 205 206 207 0
-208 -209 0
-208 -210 0
-208 -211 0
-208 -212 0
-208 -213 0
-209 -210 0
-209 -211 0
-209 -212 0
-209 -213 0
-210 -211 0
-210 -212 0
-210 -213 0
-211 -212 0
-211 -213 0
-212 -213 0
208 209 210 211 212 213 0
-214 -215 0
-214 -216 0
-214 -217 0
-214 -218 0
-214 -219 0
-215 -216 0
-215 -217 0
-215 -218 0
-215 -219 0
-216 -217 0
-216 -218 0
-216 -219 0
-217 -218 0
-217 -219 0
-218 -219 0
214 215 216 217 218 219 0
-220 -221 0
-220 -222 0
-220 -223 0
-220 -224 0
-220 -225 0
-221 -222 0
-221 -223 0
-221 -224 0
-221 -225 0
-222 -223 0
-222 -224 0
-222 -225 0
-223 -224 0
-223 -225 0
-224 -225 0
220 221 222 223 224 225 0
-226 -227 0
-226 -228 0
-226 -229 0
-226 -230 0
-226 -231 0
-227 -228 0
-227 -229 0
-227 -230 0
-227 -231 0
-228 -229 0
-228 -230 0
-228 -231 0
-229 -230 0
-229 -231 0
-230 -231 0
226 227 228 229 230 231 0
-232 -233 0
-232 -234 0
-232 -235 0
-232 -236 0
-232 -237 0
-233 -234 0
-233 -235 0
-233 -236 0
-233 -237 0
-234 -235 0
-234 -236 0
-234 -237 0
-235 -236 0
-235 -237 0
-236 -237 0
232 233 234 235 236 237 0
-238 -239 0
-238 -240 0
-238 -241 0
-238 -242 0
-238 -243 0
-239 -240 0
-239 -241 0
-239 -242 0
-239 -243 0
-240 -241 0
-240 -242 0
-240 -243 0
-241 -242 0
-241 -243 0
-242 -243 0
238 239 240 241 242 243 0
-244 -245 0
-244 -246 0
-244 -247 0
-244 -248 0
-244 -249 0
-245 -246 0
-245 -247 0
-245 -248 0
-245 -249 0
-246 -247 0
-246 -248 0
-246 -249 0
-247 -248 0
-247 -249 0
-248 -249 0
244 245 246 247 248 249 0
-250 -251 0
-250 -252 0
-250 -253 0
-250 -254 0
-250 -255 0
-251 -252 0
-251 -253 0
-251 -254 0
-251 -255 0
-252 -253 0
-252 -254 0
-252 -255 0
-253 -254 0
-253 -255 0
-254 -255 0
250 251 252 253 254 255 0
-256 -257 0
-256 -258 0
-256 -259 0
-256 -260 0
-256 -261 0
-257 -258 0
-257 -259 0
-257 -260 0
-257 -261 0
-258 -259 0
-258 -260 0
-258 -261 0
-259 -260 0
-259 -261 0
-260 -261 0
256 257 258 259 260 261 0
-262 -263 0
-262 -264 0
-262 -265 0
-262 -266 0
-262 -267 0
-263 -264 0
-263 -265 0
-263 -266 0
-263 -267 0
-264 -265 0
-264 -266 0
-264 -267 0
-265 -266 0
-265 -267 0
-266 -267 0
262 263 264 265 266 267 0
-268 -269 0
-268 -270 0
-268 -271 0
-268 -272 0
-268 -273 0
-269 -270 0
-269 -271 0
-269 -272 0
-269 -273 0
-270 -271 0
-270 -272 0
-270 -273 0
-271 -272 0
-271 -273 0
-272 -273 0
268 269 270 271 272 273 0
-1 -190 -196 0
-1 -191 -197 0
-1 -192 -198 0
-1 -193 -199 0
-1 -194 -200 0
-1 -195 -201 0
-2 -190 -202 0
-2 -191 -203 0
-2 -192 -204 0
-2 -193 -205 0
-2 -194 -206 0
-2 -195 -207 0
-3 -190 -208 0
-3 -191 -209 0
-3 -192 -210 0
-3 -193 -211 0
-3 -194 -212 0
-3 -195 -213 0
-4 -190 -214 0
-4 -191 -215 0
-4 -192 -216 0
-4 -193 -217 0
-4 -194 -218 0
-4 -195 -219 0
-5 -190 -220 0
-5 -191 -221 0
-5 -192 -222 0
-5 -193 -223 0
-5 -194 -224 0
-5 -195 -225 0
-6 -190 -226 0
-6 -191 -227 0
-6 -192 -228 0
-6 -193 -229 0
-6 -194 -230 0
-6 -195 -231 0
-7 -190 -232 0
-7 -191 -233 0
-7 -192 -234 0
-7 -193 -235 0
-7 -194 -236 0
-7 -195 -237 0
-8 -190 -238 0
-8 -191 -239 0
-8 -192 -240 0
-8 -193 -241 0
-8 -194 -242 0
-8 -195 -243 0
-9 -190 -244 0
-9 -191 -245 0
-9 -192 -246 0
-9 -193 -247 0
-9 -194 -248 0
-9 -195 -249 0
-10 -190 -250 0
-10 -191 -251 0
-10 -192 -252 0
-10 -193 -253 0
-10 -194 -254 0
-10 -195 -255 0
-11 -190 -256 0
-11 -191 -257 0
-11 -192 -258 0
-11 -193 -259 0
-11 -194 -260 0
-11 -195 -261 0
-12 -190 -262 0
-12 -191 -263 0
-12 -192 -264 0
-12 -193 -265 0
-12 -194 -266 0
-12 -195 -267 0
-13 -190 -268 0
-13 -191 -269 0
-13 -192 -270 0
-13 -193 -271 0
-13 -194 -272 0
-13 -195 -273 0
-14 -196 -202 0
-14 -197 -203 0
-14 -198 -204 0
-14 -199 -205 0
-14 -200 -206 0
-14 -201 -207 0
-15 -196 -208 0
-15 -197 -209 0
-15 -198 -210 0
-15 -199 -211 0
-15 -200 -212 0
-15 -201 -213 0
-16 -196 -214 0
-16 -197 -215 0
-16 -198 -216 0
-16 -199 -217 0
-16 -200 -218 0
-16 -201 -219 0
-17 -196 -220 0
-17 -197 -221 0
-17 -198 -222 0
-17 -199 -223 0
-17 -200 -224 0
-17 -201 -225 0
-18 -196 -226 0
-18 -197 -227 0
-18 -198 -228 0
-18 -199 -229 0
-18 -200 -230 0
-18 -201 -231 0
-19 -196 -232 0
-19 -197 -233 0
-19 -198 -234 0
-19 -199 -235 0
-19 -200 -236 0
-19 -201 -237 0
-20 -196 -238 0
-20 -197 -239 0
-20 -198 -240 0
-20 -199 -241 0
-20 -200 -242 0
-20 -201 -243 0
-21 -196 -244 0
-21 -197 -245 0
-21 -198 -246 0
-21 -199 -247 0
-21 -200 -248 0
-21 -201 -249 0
-22 -196 -250 0
-22 -197 -251 0
-22 -198 -252 0
-22 -199 -253 0
-22 -200 -254 0
-22 -201 -255 0
-23 -196 -256 0
-23 -197 -257 0
-23 -198 -258 0
-23 -199 -259 0
-23 -200 -260 0
-23 -201 -261 0
-24 -196 -262 0
-24 -197 -263 0
-24 -198 -264 0
-24 -199 -265 0
-24 -200 -266 0
-24 -201 -267 0
-25 -196 -268 0
-25 -197 -269 0
-25 -198 -270 0
-25 -199 -271 0
-25 -200 -272 0
-25 -201 -273 0
-26 -202 -208 0
-26 -203 -209 0
-26 -204 -210 0
-26 -205 -211 0
-26 -206 -212 0
-26 -207 -213 0
-27 -202 -214 0
-27 -203 -215 0
-27 -204 -216 0
-27 -205 -217 0
-27 -206 -218 0
-27 -207 -219 0
-28 -202 -220 0
-28 -203 -221 0
-28 -204 -222 0
-28 -205 -223 0
-28 -206 -224 0
-28 -207 -225 0
-29 -202 -226 0
-29 -203 -227 0
-29 -204 -228 0
-29 -205 -229 0
-29 -206 -230 0
-29 -207 -231 0
-30 -202 -232 0
-30 -203 -233 0
-30 -204 -234 0
-30 -205 -235 0
-30 -206 -236 0
-30 -207 -237 0
-31 -202 -238 0
-31 -203 -239 0
-31 -204 -240 0
-31 -205 -241 0
-31 -206 -242 0
-31 -207 -243 0
-32 -202 -244 0
-32 -203 -245 0
-32 -204 -246 0
-32 -205 -247 0
-32 -206 -248 0
-32 -207 -249 0
-33 -202 -250 0
-33 -203 -251 0
-33 -204 -252 0
-33 -205 -253 0
-33 -206 -254 0
-33 -207 -255 0
-34 -202 -256 0
-34 -203 -257 0
-34 -204 -258 0
-34 -205 -259 0
-34 -206 -260 0
-34 -207 -261 0
-35 -202 -262 0
-35 -203 -263 0
-35 -204 -264 0
-35 -205 -265 0
-35 -206 -266 0
-35 -207 -267 0
-36 -202 -268 0
-36 -203 -269 0
-36 -204 -270 0
-36 -205 -271 0
-36 -206 -272 0
-36 -207 -273 0
-37 -208 -214 0
-37 -209 -215 0
-37 -210 -216 0
-37 -211 -217 0
-37 -212 -218 0
-37 -213 -219 0
-38 -208 -220 0
-38 -209 -221 0
-38 -210 -222 0
-38 -211 -223 0
-38 -212 -224 0
-38 -213 -225 0
-39 -208 -226 0
-39 -209 -227 0
-39 -210 -228 0
-39 -211 -229 0
-39 -212 -230 0
-39 -213 -231 0
-40 -208 -232 0
-40 -209 -233 0
-40 -210 -234 0
-40 -211 -235 0
-40 -212 -236 0
-40 -213 -237 0
-41 -208 -238 0
-41 -209 -239 0
-41 -210 -240 0
-41 -211 -241 0
-41 -212 -242 0
-41 -213 -243 0
-42 -208 -244 0
-42 -209 -245 0
-42 -210 -246 0
-42 -211 -247 0
-42 -212 -248 0
-42 -213 -249 0
-43 -208 -250 0
-43 -209 -251 0
-43 -210 -252 0
-43 -211 -253 0
-43 -212 -254 0
-43 -213 -255 0
-44 -208 -256 0
-44 -209 -257 0
-44 -210 -258 0
-44 -211 -259 0
-44 -212 -260 0
-44 -213 -261 0
-45 -208 -262 0
-45 -209 -263 0
-45 -210 -264 0
-45 -211 -265 0
-45 -212 -266 0
-45 -213 -267 0
-46 -208 -268 0
-46 -209 -269 0
-46 -210 -270 0
-46 -211 -271 0
-46 -212 -272 0
-46 -213 -273 0
-47 -214 -220 0
-47 -215 -221 0
-47 -216 -222 0
-47 -217 -223 0
-47 -218 -224 0
-47 -219 -225 0
-48 -214 -226 0
-48 -215 -227 0
-48 -216 -228 0
-48 -217 -229 0
-48 -218 -230 0
-48 -219 -231 0
-49 -214 -232 0
-49 -215 -233 0
-49 -216 -234 0
-49 -217 -235 0
-49 -218 -236 0
-49 -219 -237 0
-50 -214 -238 0
-50 -215 -239 0
-50 -216 -240 0
-50 -217 -241 0
-50 -218 -242 0
-50 -219 -243 0
-51 -214 -244 0
-51 -215 -245 0
-51 -216 -246 0
-51 -217 -247 0
-51 -218 -248 0
-51 -219 -249 0
-52 -214 -250 0
-52 -215 -251 0
-52 -216 -252 0
-52 -217 -253 0
-52 -218 -254 0
-52 -219 -255 0
-53 -214 -256 0
-53 -215 -257 0
-53 -216 -258 0
-53 -217 -259 0
-53 -218 -260 0
-53 -219 -261 0
-54 -214 -262 0
-54 -215 -263 0
-54 -216 -264 0
-54 -217 -265 0
-54 -218 -266 0
-54 -219 -267 0
-55 -214 -268 0
-55 -215 -269 0
-55 -216 -270 0
-55 -217 -271 0
-55 -218 -272 0
-55 -219 -273 0
-56 -220 -226 0
-56 -221 -227 0
-56 -222 -228 0
-56 -223 -229 0
-56 -224 -230 0
-56 -225 -231 0
-57 -220 -232 0
-57 -221 -233 0
-57 -222 -234 0
-57 -223 -235 0
-57 -224 -236 0
-57 -225 -237 0
-58 -220 -238 0
-58 -221 -239 0
-58 -222 -240 0
-58 -223 -241 0
-58 -224 -242 0
-58 -225 -243 0
-59 -220 -244 0
-59 -221 -245 0
-59 -222 -246 0
-59 -223 -247 0
-59 -224 -248 0
-59 -225 -249 0
-60 -220 -250 0
-60 -221 -251 0
-60 -222 -252 0
-60 -223 -253 0
-60 -224 -254 0
-60 -225 -255 0
-61 -220 -256 0
-61 -221 -257 0
-61 -222 -258 0
-61 -223 -259 0
-61 -224 -260 0
-61 -225 -261 0
-62 -220 -262 0
-62 -221 -263 0
-62 -222 -264 0
-62 -223 -265 0
-62 -224 -266 0
-62 -225 -267 0
-63 -220 -268 0
-63 -221 -269 0
-63 -222 -270 0
-63 -223 -271 0
-63 -224 -272 0
-63 -225 -273 0
-64 -226 -232 0
-64 -227 -233 0
-64 -228 -234 0
-64 -229 -235 0
-64 -230 -236 0
-64 -231 -237 0
-65 -226 -238 0
-65 -227 -239 0
-65 -228 -240 0
-65 -229 -241 0
-65 -230 -242 0
-65 -231 -243 0
-66 -226 -244 0
-66 -227 -245 0
-66 -228 -246 0
-66 -229 -247 0
-66 -230 -248 0
-66 -231 -249 0
-67 -226 -250 0
-67 -227 -251 0
-67 -228 -252 0
-67 -229 -253 0
-67 -230 -254 0
-67 -231 -255 0
-68 -226 -256 0
-68 -227 -257 0
-68 -228 -258 0
-68 -229 -259 0
-68 -230 -260 0
-68 -231 -261 0
-69 -226 -262 0
-69 -227 -263 0
-69 -228 -264 0
-69 -229 -265 0
-69 -230 -266 0
-69 -231 -267 0
-70 -226 -268 0
-70 -227 -269 0
-70 -228 -270 0
-70 -229 -271 0
-70 -230 -272 0
-70 -231 -273 0
-71 -232 -238 0
-71 -233 -239 0
-71 -234 -240 0
-71 -235 -241 0
-71 -236 -242 0
-71 -237 -243 0
-72 -232 -244 0
-72 -233 -245 0
-72 -234 -246 0
-72 -235 -247 0
-72 -236 -248 0
-72 -237 -249 0
-73 -232 -250 0
-73 -233 -251 0
-73 -234 -252 0
-73 -235 -253 0
-73 -236 -254 0
-73 -237 -255 0
-74 -232 -256 0
-74 -233 -257 0
-74 -234 -258 0
-74 -235 -259 0
-74 -236 -260 0
-74 -237 -261 0
-75 -232 -262 0
-75 -233 -263 0
-75 -234 -264 0
-75 -235 -265 0
-75 -236 -266 0
-75 -237 -267 0
-76 -232 -268 0
-76 -233 -269 0
-76 -234 -270 0
-76 -235 -271 0
-76 -236 -272 0
-76 -237 -273 0
-77 -238 -244 0
-77 -239 -245 0
-77 -240 -246 0
-77 -241 -247 0
-77 -242 -248 0
-77 -243 -249 0
-78 -238 -250 0
-78 -239 -251 0
-78 -240 -252 0
-78 -241 -253 0
-78 -242 -254 0
-78 -243 -255 0
-79 -238 -256 0
-79 -239 -257 0
-79 -240 -258 0
-79 -241 -259 0
-79 -242 -260 0
-79 -243 -261 0
-80 -238 -262 0
-80 -239 -263 0
-80 -240 -264 0
-80 -241 -265 0
-80 -242 -266 0
-80 -243 -267 0
-81 -238 -268 0
-81 -239 -269 0
-81 -240 -270 0
-81 -241 -271 0
-81 -242 -272 0
-81 -243 -273 0
-82 -244 -250 0
-82 -245 -251 0
-82 -246 -252 0
-82 -247 -253 0
-82 -248 -254 0
-82 -249 -255 0
-83 -244 -256 0
-83 -245 -257 0
-83 -246 -258 0
-83 -247 -259 0
-83 -248 -260 0
-83 -249 -261 0
-84 -244 -262 0
-84 -245 -263 0
-84 -246 -264 0
-84 -247 -265 0
-84 -248 -266 0
-84 -249 -267 0
-85 -244 -268 0
-85 -245 -269 0
-85 -246 -270 0
-85 -247 -271 0
-85 -248 -272 0
-85 -249 -273 0
-86 -250 -256 0
-86 -251 -257 0
-86 -252 -258 0
-86 -253 -259 0
-86 -254 -260 0
-86 -255 -261 0
-87 -250 -262 0
-87 -251 -263 0
-87 -252 -264 0
-87 -253 -265 0
-87 -254 -266 0
-87 -255 -267 0
-88 -250 -268 0
-88 -251 -269 0
-88 -252 -270 0
-88 -253 -271 0
-88 -254 -272 0
-88 -255 -273 0
-89 -256 -262 0
-89 -257 -263 0
-89 -258 -264 0
-89 -259 -265 0
-89 -260 -266 0
-89 -261 -267 0
-90 -256 -268 0
-90 -257 -269 0
-90 -258 -270 0
-90 -259 -271 0
-90 -260 -272 0
-90 -261 -273 0
-91 -262 -268 0
-91 -263 -269 0
-91 -264 -270 0
-91 -265 -271 0
-91 -266 -272 0
-91 -267 -273 0
274 0
-162 176 0
176 -274 275 0
-162 -274 275 0
-275 -163 177 0
177 -275 276 0
-163 -275 276 0
-276 -164 178 0
178 -276 277 0
-164 -276 277 0
-277 -165 179 0
179 -277 278 0
-165 -277 278 0
-278 -166 180 0
180 -278 279 0
-166 -278 279 0
-279 -167 181 0
181 -279 280 0
-167 -279 280 0
-280 -168 182 0
182 -280 281 0
-168 -280 281 0
-281 -169 183 0
183 -281 282 0
-169 -281 282 0
-282 -170 184 0
184 -282 283 0
-170 -282 283 0
-283 -171 185 0
185 -283 284 0
-171 -283 284 0
-284 -172 186 0
186 -284 285 0
-172 -284 285 0
-285 -173 187 0
187 -285 286 0
-173 -285 286 0
-286 -174 188 0
188 -286 287 0
-174 -286 287 0
-287 -175 189 0
288 0
-148 162 0
162 -288 289 0
-148 -288 289 0
-289 -149 163 0
163 -289 290 0
-149 -289 290 0
-290 -150 164 0
164 -290 291 0
-150 -290 291 0
-291 -151 165 0
165 -291 292 0
-151 -291 292 0
-292 -152 166 0
166 -292 293 0
-152 -292 293 0
-293 -153 167 0
167 -293 294 0
-153 -293 294 0
-294 -154 168 0
168 -294 295 0
-154 -294 295 0
-295 -155 169 0
169 -295 296 0
-155 -295 296 0
-296 -156 170 0
170 -296 297 0
-156 -296 297 0
-297 -157 171 0
171 -297 298 0
-157 -297 298 0
-298 -158 172 0
172 -298 299 0
-158 -298 299 0
-299 -159 173 0
173 -299 300 0
-159 -299 300 0
-300 -160 174 0
174 -300 301 0
-160 -300 301 0
-301 -161 175 0
302 0
-134 148 0
148 -302 303 0
-134 -302 303 0
-303 -135 149 0
149 -303 304 0
-135 -303 304 0
-304 -136 150 0
150 -304 305 0
-136 -304 305 0
-305 -137 151 0
151 -305 306 0
-137 -305 306 0
-306 -138 152 0
152 -306 307 0
-138 -306 307 0
-307 -139 153 0
153 -307 308 0
-139 -307 308 0
-308 -140 154 0
154 -308 309 0
-140 -308 309 0
-309 -141 155 0
155 -309 310 0
-141 -309 310 0
-310 -142 156 0
156 -310 311 0
-142 -310 311 0
-311 -143 157 0
157 -311 312 0
-143 -311 312 0
-312 -144 158 0
158 -312 313 0
-144 -312 313 0
-313 -145 159 0
159 -313 314 0
-145 -313 314 0
-314 -146 160 0
160 -314 315 0
-146 -314 315 0
-315 -147 161 0
316 0
-120 134 0
134 -316 317 0
-120 -316 317 0
-317 -121 135 0
135 -317 318 0
-121 -317 318 0
-318 -122 136 0
136 -318 319 0
-122 -318 319 0
-319 -123 137 0
137 -319 320 0
-123 -319 320 0
-320 -124 138 0
138 -320 321 0
-124 -320 321 0
-321 -125 139 0
139 -321 322 0
-125 -321 322 0
-322 -126 140 0
140 -322 323 0
-126 -322 323 0
-323 -127 141 0
141 -323 324 0
-127 -323 324 0
-324 -128 142 0
142 -324 325 0
-128 -324 325 0
-325 -129 143 0
143 -325 326 0
-129 -325 326 0
-326 -130 144 0
144 -326 327 0
-130 -326 327 0
-327 -131 145 0
145 -327 328 0
-131 -327 328 0
-328 -132 146 0
146 -328 329 0
-132 -328 329 0
-329 -133 147 0
330 0
-106 120 0
120 -330 331 0
-106 -330 331 0
-331 -107 121 0
121 -331 332 0
-107 -331 332 0
-332 -108 122 0
122 -332 333 0
-108 -332 333 0
-333 -109 123 0
123 -333 334 0
-109 -333 334 0
-334 -110 124 0
124 -334 335 0
-110 -334 335 0
-335 -111 125 0
125 -335 336 0
-111 -335 336 0
-336 -112 126 0
126 -336 337 0
-112 -336 337 0
-337 -113 127 0
127 -337 338 0
-113 -337 338 0
-338 -114 128 0
128 -338 339 0
-114 -338 339 0
-339 -115 129 0
129 -339 340 0
-115 -339 340 0
-340 -116 130 0
130 -340 341 0
-116 -340 341 0
-341 -117 131 0
131 -341 342 0
-117 -341 342 0
-342 -118 132 0
132 -342 343 0
-118 -342 343 0
-343 -119 133 0
344 0
-194 195 0
195 -344 345 0
-194 -344 345 0
-345 -200 201 0
201 -345 346 0
-200 -345 346 0
-346 -206 207 0
207 -346 347 0
-206 -346 347 0
-347 -212 213 0
213 -347 348 0
-212 -347 348 0
-348 -218 219 0
219 -348 349 0
-218 -348 349 0
-349 -224 225 0
225 -349 350 0
-224 -349 350 0
-350 -230 231 0
231 -350 351 0
-230 -350 351 0
-351 -236 237 0
237 -351 352 0
-236 -351 352 0
-352 -242 243 0
243 -352 353 0
-242 -352 353 0
-353 -248 249 0
249 -353 354 0
-248 -353 354 0
-354 -254 255 0
255 -354 355 0
-254 -354 355 0
-355 -260 261 0
261 -355 356 0
-260 -355 356 0
-356 -266 267 0
267 -356 357 0
-266 -356 357 0
-357 -272 273 0
358 0
-193 194 0
194 -358 359 0
-193 -358 359 0
-359 -199 200 0
200 -359 360 0
-199 -359 360 0
-360 -205 206 0
206 -360 361 0
-205 -360 361 0
-361 -211 212 0
212 -361 362 0
-211 -361 362 0
-362 -217 218 0
218 -362 363 0
-217 -362 363 0
-363 -223 224 0
224 -363 364 0
-223 -363 364 0
-364 -229 230 0
230 -364 365 0
-229 -364 365 0
-365 -235 236 0
236 -365 366 0
-235 -365 366 0
-366 -241 242 0
242 -366 367 0
-241 -366 367 0
-367 -247 248 0
248 -367 368 0
-247 -367 368 0
-368 -253 254 0
254 -368 369 0
-253 -368 369 0
-369 -259 260 0
260 -369 370 0
-259 -369 370 0
-370 -265 266 0
266 -370 371 0
-265 -370 371 0
-371 -271 272 0
372 0
-192 193 0
193 -372 373 0
-192 -372 373 0
-373 -198 199 0
199 -373 374 0
-198 -373 374 0
-374 -204 205 0
205 -374 375 0
-204 -374 375 0
-375 -210 211 0
211 -375 376 0
-210 -375 376 0
-376 -216 217 0
217 -376 377 0
-216 -376 377 0
-377 -222 223 0
223 -377 378 0
-222 -377 378 0
-378 -228 229 0
229 -378 379 0
-228 -378 379 0
-379 -234 235 0
235 -379 380 0
-234 -379 380 0
-380 -240 241 0
241 -380 381 0
-240 -380 381 0
-381 -246 247 0
247 -381 382 0
-246 -381 382 0
-382 -252 253 0
253 -382 383 0
-252 -382 383 0
-383 -258 259 0
259 -383 384 0
-258 -383 384 0
-384 -264 265 0
265 -384 385 0
-264 -384 385 0
-385 -270 271 0
386 0
-191 192 0
192 -386 387 0
-191 -386 387 0
-387 -197 198 0
198 -387 388 0
-197 -387 388 0
-388 -203 204 0
204 -388 389 0
-203 -388 389 0
-389 -209 210 0
210 -389 390 0
-209 -389 390 0
-390 -215 216 0
216 -390 391 0
-215 -390 391 0
-391 -221 222 0
222 -391 392 0
-221 -391 392 0
-392 -227 228 0
228 -392 393 0
-227 -392 393 0
-393 -233 234 0
234 -393 394 0
-233 -393 394 0
-394 -239 240 0
240 -394 395 0
-239 -394 395 0
-395 -245 246 0
246 -395 396 0
-245 -395 396 0
-396 -251 252 0
252 -396 397 0
-251 -396 397 0
-397 -257 258 0
258 -397 398 0
-257 -397 398 0
-398 -263 264 0
264 -398 399 0
-263 -398 399 0
-399 -269 270 0
400 0
-190 191 0
191 -400 401 0
-190 -400 401 0
-401 -196 197 0
197 -401 402 0
-196 -401 402 0
-402 -202 203 0
203 -402 403 0
-202 -402 403 0
-403 -208 209 0
209 -403 404 0
-208 -403 404 0
-404 -214 215 0
215 -404 405 0
-214 -404 405 0
-405 -220 221 0
221 -405 406 0
-220 -405 406 0
-406 -226 227 0
227 -406 407 0
-226 -406 407 0
-407 -232 233 0
233 -407 408 0
-232 -407 408 0
-408 -238 239 0
239 -408 409 0
-238 -408 409 0
-409 -244 245 0
245 -409 410 0
-244 -409 410 0
-410 -250 251 0
251 -410 411 0
-250 -410 411 0
-411 -256 257 0
257 -411 412 0
-256 -411 412 0
-412 -262 263 0
263 -412 413 0
-262 -412 413 0
-413 -268 269 0
414 0
-107 108 0
108 -414 415 0
-107 -414 415 0
-415 -108 107 0
107 -415 416 0
-108 -415 416 0
-416 -121 122 0
122 -416 417 0
-121 -416 417 0
-417 -122 121 0
121 -417 418 0
-122 -417 418 0
-418 -135 136 0
136 -418 419 0
-135 -418 419 0
-419 -136 135 0
135 -419 420 0
-136 -419 420 0
-420 -149 150 0
150 -420 421 0
-149 -420 421 0
-421 -150 149 0
149 -421 422 0
-150 -421 422 0
-422 -163 164 0
164 -422 423 0
-163 -422 423 0
-423 -164 163 0
163 -423 424 0
-164 -423 424 0
-424 -177 178 0
178 -424 425 0
-177 -424 425 0
-425 -178 177 0
177 -425 426 0
-178 -425 426 0
-426 -196 202 0
202 -426 427 0
-196 -426 427 0
-427 -202 196 0
196 -427 428 0
-202 -427 428 0
-428 -197 203 0
203 -428 429 0
-197 -428 429 0
-429 -203 197 0
197 -429 430 0
-203 -429 430 0
-430 -198 204 0
204 -430 431 0
-198 -430 431 0
-431 -204 198 0
198 -431 432 0
-204 -431 432 0
-432 -199 205 0
205 -432 433 0
-199 -432 433 0
-433 -205 199 0
199 -433 434 0
-205 -433 434 0
-434 -200 206 0
206 -434 435 0
-200 -434 435 0
-435 -206 200 0
200 -435 436 0
-206 -435 436 0
-436 -201 207 0
207 -436 437 0
-201 -436 437 0
-437 -207 201 0
201 -437 438 0
-207 -437 438 0
-438 -16 27 0
439 0
-108 110 0
110 -439 440 0
-108 -439 440 0
-440 -110 108 0
108 -440 441 0
-110 -440 441 0
-441 -122 124 0
124 -441 442 0
-122 -441 442 0
-442 -124 122 0
122 -442 443 0
-124 -442 443 0
-443 -136 138 0
138 -443 444 0
-136 -443 444 0
-444 -138 136 0
136 -444 445 0
-138 -444 445 0
-445 -150 152 0
152 -445 446 0
-150 -445 446 0
-446 -152 150 0
150 -446 447 0
-152 -446 447 0
-447 -164 166 0
166 -447 448 0
-164 -447 448 0
-448 -166 164 0
164 -448 449 0
-166 -448 449 0
-449 -178 180 0
180 -449 450 0
-178 -449 450 0
-450 -180 178 0
178 -450 451 0
-180 -450 451 0
-451 -202 214 0
214 -451 452 0
-202 -451 452 0
-452 -214 202 0
202 -452 453 0
-214 -452 453 0
-453 -203 215 0
215 -453 454 0
-203 -453 454 0
-454 -215 203 0
203 -454 455 0
-215 -454 455 0
-455 -204 216 0
216 -455 456 0
-204 -455 456 0
-456 -216 204 0
204 -456 457 0
-216 -456 457 0
-457 -205 217 0
217 -457 458 0
-205 -457 458 0
-458 -217 205 0
205 -458 459 0
-217 -458 459 0
-459 -206 218 0
218 -459 460 0
-206 -459 460 0
-460 -218 206 0
206 -460 461 0
-218 -460 461 0
-461 -207 219 0
219 -461 462 0
-207 -461 462 0
-462 -219 207 0
207 -462 463 0
-219 -462 463 0
-463 -14 16 0
464 0
-110 111 0
111 -464 465 0
-110 -464 465 0
-465 -111 110 0
110 -465 466 0
-111 -465 466 0
-466 -124 125 0
125 -466 467 0
-124 -466 467 0
-467 -125 124 0
124 -467 468 0
-125 -467 468 0
-468 -138 139 0
139 -468 469 0
-138 -468 469 0
-469 -139 138 0
138 -469 470 0
-139 -469 470 0
-470 -152 153 0
153 -470 471 0
-152 -470 471 0
-471 -153 152 0
152 -471 472 0
-153 -471 472 0
-472 -166 167 0
167 -472 473 0
-166 -472 473 0
-473 -167 166 0
166 -473 474 0
-167 -473 474 0
-474 -180 181 0
181 -474 475 0
-180 -474 475 0
-475 -181 180 0
180 -475 476 0
-181 -475 476 0
-476 -214 220 0
220 -476 477 0
-214 -476 477 0
-477 -220 214 0
214 -477 478 0
-220 -477 478 0
-478 -215 221 0
221 -478 479 0
-215 -478 479 0
-479 -221 215 0
215 -479 480 0
-221 -479 480 0
-480 -216 222 0
222 -480 481 0
-216 -480 481 0
-481 -222 216 0
216 -481 482 0
-222 -481 482 0
-482 -217 223 0
223 -482 483 0
-217 -482 483 0
-483 -223 217 0
217 -483 484 0
-223 -483 484 0
-484 -218 224 0
224 -484 485 0
-218 -484 485 0
-485 -224 218 0
218 -485 486 0
-224 -485 486 0
-486 -219 225 0
225 -486 487 0
-219 -486 487 0
-487 -225 219 0
219 -487 488 0
-225 -487 488 0
-488 -16 17 0
489 0
-111 112 0
112 -489 490 0
-111 -489 490 0
-490 -112 111 0
111 -490 491 0
-112 -490 491 0
-491 -125 126 0
126 -491 492 0
-125 -491 492 0
-492 -126 125 0
125 -492 493 0
-126 -492 493 0
-493 -139 140 0
140 -493 494 0
-139 -493 494 0
-494 -140 139 0
139 -494 495 0
-140 -494 495 0
-495 -153 154 0
154 -495 496 0
-153 -495 496 0
-496 -154 153 0
153 -496 497 0
-154 -496 497 0
-497 -167 168 0
168 -497 498 0
-167 -497 498 0
-498 -168 167 0
167 -498 499 0
-168 -498 499 0
-499 -181 182 0
182 -499 500 0
-181 -499 500 0
-500 -182 181 0
181 -500 501 0
-182 -500 501 0
-501 -220 226 0
226 -501 502 0
-220 -501 502 0
-502 -226 220 0
220 -502 503 0
-226 -502 503 0
-503 -221 227 0
227 -503 504 0
-221 -503 504 0
-504 -227 221 0
221 -504 505 0
-227 -504 505 0
-505 -222 228 0
228 -505 506 0
-222 -505 506 0
-506 -228 222 0
222 -506 507 0
-228 -506 507 0
-507 -223 229 0
229 -507 508 0
-223 -507 508 0
-508 -229 223 0
223 -508 509 0
-229 -508 509 0
-509 -224 230 0
230 -509 510 0
-224 -509 510 0
-510 -230 224 0
224 -510 511 0
-230 -510 511 0
-511 -225 231 0
231 -511 512 0
-225 -511 512 0
-512 -231 225 0
225 -512 513 0
-231 -512 513 0
-513 -17 18 0
514 0
-112 113 0
113 -514 515 0
-112 -514 515 0
-515 -113 112 0
112 -515 516 0
-113 -515 516 0
-516 -126 127 0
127 -516 517 0
-126 -516 517 0
-517 -127 126 0
126 -517 518 0
-127 -517 518 0
-518 -140 141 0
141 -518 519 0
-140 -518 519 0
-519 -141 140 0
140 -519 520 0
-141 -519 520 0
-520 -154 155 0
155 -520 521 0
-154 -520 521 0
-521 -155 154 0
154 -521 522 0
-155 -521 522 0
-522 -168 169 0
169 -522 523 0
-168 -522 523 0
-523 -169 168 0
168 -523 524 0
-169 -523 524 0
-524 -182 183 0
183 -524 525 0
-182 -524 525 0
-525 -183 182 0
182 -525 526 0
-183 -525 526 0
-526 -226 232 0
232 -526 527 0
-226 -526 527 0
-527 -232 226 0
226 -527 528 0
-232 -527 528 0
-528 -227 233 0
233 -528 529 0
-227 -528 529 0
-529 -233 227 0
227 -529 530 0
-233 -529 530 0
-530 -228 234 0
234 -530 531 0
-228 -530 531 0
-531 -234 228 0
228 -531 532 0
-234 -531 532 0
-532 -229 235 0
235 -532 533 0
-229 -532 533 0
-533 -235 229 0
229 -533 534 0
-235 -533 534 0
-534 -230 236 0
236 -534 535 0
-230 -534 535 0
-535 -236 230 0
230 -535 536 0
-236 -535 536 0
-536 -231 237 0
237 -536 537 0
-231 -536 537 0
-537 -237 231 0
231 -537 538 0
-237 -537 538 0
-538 -18 19 0
539 0
-113 114 0
114 -539 540 0
-113 -539 540 0
-540 -114 113 0
113 -540 541 0
-114 -540 541 0
-541 -127 128 0
128 -541 542 0
-127 -541 542 0
-542 -128 127 0
127 -542 543 0
-128 -542 543 0
-543 -141 142 0
142 -543 544 0
-141 -543 544 0
-544 -142 141 0
141 -544 545 0
-142 -544 545 0
-545 -155 156 0
156 -545 546 0
-155 -545 546 0
-546 -156 155 0
155 -546 547 0
-156 -546 547 0
-547 -169 170 0
170 -547 548 0
-169 -547 548 0
-548 -170 169 0
169 -548 549 0
-170 -548 549 0
-549 -183 184 0
184 -549 550 0
-183 -549 550 0
-550 -184 183 0
183 -550 551 0
-184 -550 551 0
-551 -232 238 0
238 -551 552 0
-232 -551 552 0
-552 -238 232 0
232 -552 553 0
-238 -552 553 0
-553 -233 239 0
239 -553 554 0
-233 -553 554 0
-554 -239 233 0
233 -554 555 0
-239 -554 555 0
-555 -234 240 0
240 -555 556 0
-234 -555 556 0
-556 -240 234 0
234 -556 557 0
-240 -556 557 0
-557 -235 241 0
241 -557 558 0
-235 -557 558 0
-558 -241 235 0
235 -558 559 0
-241 -558 559 0
-559 -236 242 0
242 -559 560 0
-236 -559 560 0
-560 -242 236 0
236 -560 561 0
-242 -560 561 0
-561 -237 243 0
243 -561 562 0
-237 -561 562 0
-562 -243 237 0
237 -562 563 0
-243 -562 563 0
-563 -19 20 0
564 0
-114 115 0
115 -564 565 0
-114 -564 565 0
-565 -115 114 0
114 -565 566 0
-115 -565 566 0
-566 -128 129 0
129 -566 567 0
-128 -566 567 0
-567 -129 128 0
128 -567 568 0
-129 -567 568 0
-568 -142 143 0
143 -568 569 0
-142 -568 569 0
-569 -143 142 0
142 -569 570 0
-143 -569 570 0
-570 -156 157 0
157 -570 571 0
-156 -570 571 0
-571 -157 156 0
156 -571 572 0
-157 -571 572 0
-572 -170 171 0
171 -572 573 0
-170 -572 573 0
-573 -171 170 0
170 -573 574 0
-171 -573 574 0
-574 -184 185 0
185 -574 575 0
-184 -574 575 0
-575 -185 184 0
184 -575 576 0
-185 -575 576 0
-576 -238 244 0
244 -576 577 0
-238 -576 577 0
-577 -244 238 0
238 -577 578 0
-244 -577 578 0
-578 -239 245 0
245 -578 579 0
-239 -578 579 0
-579 -245 239 0
239 -579 580 0
-245 -579 580 0
-580 -240 246 0
246 -580 581 0
-240 -580 581 0
-581 -246 240 0
240 -581 582 0
-246 -581 582 0
-582 -241 247 0
247 -582 583 0
-241 -582 583 0
-583 -247 241 0
241 -583 584 0
-247 -583 584 0
-584 -242 248 0
248 -584 585 0
-242 -584 585 0
-585 -248 242 0
242 -585 586 0
-248 -585 586 0
-586 -243 249 0
249 -586 587 0
-243 -586 587 0
-587 -249 243 0
243 -587 588 0
-249 -587 588 0
-588 -20 21 0
589 0
-115 116 0
116 -589 590 0
-115 -589 590 0
-590 -116 115 0
115 -590 591 0
-116 -590 591 0
-591 -129 130 0
130 -591 592 0
-129 -591 592 0
-592 -130 129 0
129 -592 593 0
-130 -592 593 0
-593 -143 144 0
144 -593 594 0
-143 -593 594 0
-594 -144 143 0
143 -594 595 0
-144 -594 595 0
-595 -157 158 0
158 -595 596 0
-157 -595 596 0
-596 -158 157 0
157 -596 597 0
-158 -596 597 0
-597 -171 172 0
172 -597 598 0
-171 -597 598 0
-598 -172 171 0
171 -598 599 0
-172 -598 599 0
-599 -185 186 0
186 -599 600 0
-185 -599 600 0
-600 -186 185 0
185 -600 601 0
-186 -600 601 0
-601 -244 250 0
250 -601 602 0
-244 -601 602 0
-602 -250 244 0
244 -602 603 0
-250 -602 603 0
-603 -245 251 0
251 -603 604 0
-245 -603 604 0
-604 -251 245 0
245 -604 605 0
-251 -604 605 0
-605 -246 252 0
252 -605 606 0
-246 -605 606 0
-606 -252 246 0
246 -606 607 0
-252 -606 607 0
-607 -247 253 0
253 -607 608 0
-247 -607 608 0
-608 -253 247 0
247 -608 609 0
-253 -608 609 0
-609 -248 254 0
254 -609 610 0
-248 -609 610 0
-610 -254 248 0
248 -610 611 0
-254 -610 611 0
-611 -249 255 0
255 -611 612 0
-249 -611 612 0
-612 -255 249 0
249 -612 613 0
-255 -612 613 0
-613 -21 22 0
614 0
-116 117 0
117 -614 615 0
-116 -614 615 0
-615 -117 116 0
116 -615 616 0
-117 -615 616 0
-616 -130 131 0
131 -616 617 0
-130 -616 617 0
-617 -131 130 0
130 -617 618 0
-131 -617 618 0
-618 -144 145 0
145 -618 619 0
-144 -618 619 0
-619 -145 144 0
144 -619 620 0
-145 -619 620 0
-620 -158 159 0
159 -620 621 0
-158 -620 621 0
-621 -159 158 0
158 -621 622 0
-159 -621 622 0
-622 -172 173 0
173 -622 623 0
-172 -622 623 0
-623 -173 172 0
172 -623 624 0
-173 -623 624 0
-624 -186 187 0
187 -624 625 0
-186 -624 625 0
-625 -187 186 0
186 -625 626 0
-187 -625 626 0
-626 -250 256 0
256 -626 627 0
-250 -626 627 0
-627 -256 250 0
250 -627 628 0
-256 -627 628 0
-628 -251 257 0
257 -628 629 0
-251 -628 629 0
-629 -257 251 0
251 -629 630 0
-257 -629 630 0
-630 -252 258 0
258 -630 631 0
-252 -630 631 0
-631 -258 252 0
252 -631 632 0
-258 -631 632 0
-632 -253 259 0
259 -632 633 0
-253 -632 633 0
-633 -259 253 0
253 -633 634 0
-259 -633 634 0
-634 -254 260 0
260 -634 635 0
-254 -634 635 0
-635 -260 254 0
254 -635 636 0
-260 -635 636 0
-636 -255 261 0
261 -636 637 0
-255 -636 637 0
-637 -261 255 0
255 -637 638 0
-261 -637 638 0
-638 -22 23 0
639 0
-117 118 0
118 -639 640 0
-117 -639 640 0
-640 -118 117 0
117 -640 641 0
-118 -640 641 0
-641 -131 132 0
132 -641 642 0
-131 -641 642 0
-642 -132 131 0
131 -642 643 0
-132 -642 643 0
-643 -145 146 0
146 -643 644 0
-145 -643 644 0
-644 -146 145 0
145 -644 645 0
-146 -644 645 0
-645 -159 160 0
160 -645 646 0
-159 -645 646 0
-646 -160 159 0
159 -646 647 0
-160 -646 647 0
-647 -173 174 0
174 -647 648 0
-173 -647 648 0
-648 -174 173 0
173 -648 649 0
-174 -648 649 0
-649 -187 188 0
188 -649 650 0
-187 -649 650 0
-650 -188 187 0
187 -650 651 0
-188 -650 651 0
-651 -256 262 0
262 -651 652 0
-256 -651 652 0
-652 -262 256 0
256 -652 653 0
-262 -652 653 0
-653 -257 263 0
263 -653 654 0
-257 -653 654 0
-654 -263 257 0
257 -654 655 0
-263 -654 655 0
-655 -258 264 0
264 -655 656 0
-258 -655 656 0
-656 -264 258 0
258 -656 657 0
-264 -656 657 0
-657 -259 265 0
265 -657 658 0
-259 -657 658 0
-658 -265 259 0
259 -658 659 0
-265 -658 659 0
-659 -260 266 0
266 -659 660 0
-260 -659 660 0
-660 -266 260 0
260 -660 661 0
-266 -660 661 0
-661 -261 267 0
267 -661 662 0
-261 -661 662 0
-662 -267 261 0
261 -662 663 0
-267 -662 663 0
-663 -23 24 0
664 0
-118 119 0
119 -664 665 0
-118 -664 665 0
-665 -119 118 0
118 -665 666 0
-119 -665 666 0
-666 -132 133 0
133 -666 667 0
-132 -666 667 0
-667 -133 132 0
132 -667 668 0
-133 -667 668 0
-668 -146 147 0
147 -668 669 0
-146 -668 669 0
-669 -147 146 0
146 -669 670 0
-147 -669 670 0
-670 -160 161 0
161 -670 671 0
-160 -670 671 0
-671 -161 160 0
160 -671 672 0
-161 -671 672 0
-672 -174 175 0
175 -672 673 0
-174 -672 673 0
-673 -175 174 0
174 -673 674 0
-175 -673 674 0
-674 -188 189 0
189 -674 675 0
-188 -674 675 0
-675 -189 188 0
188 -675 676 0
-189 -675 676 0
-676 -262 268 0
268 -676 677 0
-262 -676 677 0
-677 -268 262 0
262 -677 678 0
-268 -677 678 0
-678 -263 269 0
269 -678 679 0
-263 -678 679 0
-679 -269 263 0
263 -679 680 0
-269 -679 680 0
-680 -264 270 0
270 -680 681 0
-264 -680 681 0
-681 -270 264 0
264 -681 682 0
-270 -681 682 0
-682 -265 271 0
271 -682 683 0
-265 -682 683 0
-683 -271 265 0
265 -683 684 0
-271 -683 684 0
-684 -266 272 0
272 -684 685 0
-266 -684 685 0
-685 -272 266 0
266 -685 686 0
-272 -685 686 0
-686 -267 273 0
273 -686 687 0
-267 -686 687 0
-687 -273 267 0
267 -687 688 0
-273 -687 688 0
-688 -24 25 0
