p cnf 972 8584
-154 -155 0
-154 -156 0
-154 -157 0
-154 -158 0
-154 -159 0
-154 -160 0
-154 -161 0
-154 -162 0
-154 -163 0
-154 -164 0
-154 -165 0
-154 -166 0
-154 -167 0
-154 -168 0
-154 -169 0
-154 -170 0
-154 -171 0
-155 -156 0
-155 -157 0
-155 -158 0
-155 -159 0
-155 -160 0
-155 -161 0
-155 -162 0
-155 -163 0
-155 -164 0
-155 -165 0
-155 -166 0
-155 -167 0
-155 -168 0
-155 -169 0
-155 -170 0
-155 -171 0
-156 -157 0
-156 -158 0
-156 -159 0
-156 -160 0
-156 -161 0
-156 -162 0
-156 -163 0
-156 -164 0
-156 -165 0
-156 -166 0
-156 -167 0
-156 -168 0
-156 -169 0
-156 -170 0
-156 -171 0
-157 -158 0
-157 -159 0
-157 -160 0
-157 -161 0
-157 -162 0
-157 -163 0
-157 -164 0
-157 -165 0
-157 -166 0
-157 -167 0
-157 -168 0
-157 -169 0
-157 -170 0
-157 -171 0
-158 -159 0
-158 -160 0
-158 -161 0
-158 -162 0
-158 -163 0
-158 -164 0
-158 -165 0
-158 -166 0
-158 -167 0
-158 -168 0
-158 -169 0
-158 -170 0
-158 -171 0
-159 -160 0
-159 -161 0
-159 -162 0
-159 -163 0
-159 -164 0
-159 -165 0
-159 -166 0
-159 -167 0
-159 -168 0
-159 -169 0
-159 -170 0
-159 -171 0
-160 -161 0
-160 -162 0
-160 -163 0
-160 -164 0
-160 -165 0
-160 -166 0
-160 -167 0
-160 -168 0
-160 -169 0
-160 -170 0
-160 -171 0
-161 -162 0
-161 -163 0
-161 -164 0
-161 -165 0
-161 -166 0
-161 -167 0
-161 -168 0
-161 -169 0
-161 -170 0
-161 -171 0
-162 -163 0
-162 -164 0
-162 -165 0
-162 -166 0
-162 -167 0
-162 -168 0
-162 -169 0
-162 -170 0
-162 -171 0
-163 -164 0
-163 -165 0
-163 -166 0
-163 -167 0
-163 -168 0
-163 -169 0
-163 -170 0
-163 -171 0
-164 -165 0
-164 -166 0
-164 -167 0
-164 -168 0
-164 -169 0
-164 -170 0
-164 -171 0
-165 -166 0
-165 -167 0
-165 -168 0
-165 -169 0
-165 -170 0
-165 -171 0
-166 -167 0
-166 -168 0
-166 -169 0
-166 -170 0
-166 -171 0
-167 -168 0
-167 -169 0
-167 -170 0
-167 -171 0
-168 -169 0
-168 -170 0
-168 -171 0
-169 -170 0
-169 -171 0
-170 -171 0
154 155 156 157 158 159 160 161 162 163 164 165 166 167 168 169 170 171 0
-172 -173 0
-172 -174 0
-172 -175 0
-172 -176 0
-172 -177 0
-172 -178 0
-172 -179 0
-172 -180 0
-172 -181 0
-172 -182 0
-172 -183 0
-172 -184 0
-172 -185 0
-172 -186 0
-172 -187 0
-172 -188 0
-172 -189 0
-173 -174 0
-173 -175 0
-173 -176 0
-173 -177 0
-173 -178 0
-173 -179 0
-173 -180 0
-173 -181 0
-173 -182 0
-173 -183 0
-173 -184 0
-173 -185 0
-173 -186 0
-173 -187 0
-173 -188 0
-173 -189 0
-174 -175 0
-174 -176 0
-174 -177 0
-174 -178 0
-174 -179 0
-174 -180 0
-174 -181 0
-174 -182 0
-174 -183 0
-174 -184 0
-174 -185 0
-174 -186 0
-174 -187 0
-174 -188 0
-174 -189 0
-175 -176 0
-175 -177 0
-175 -178 0
-175 -179 0
-175 -180 0
-175 -181 0
-175 -182 0
-175 -183 0
-175 -184 0
-175 -185 0
-175 -186 0
-175 -187 0
-175 -188 0
-175 -189 0
-176 -177 0
-176 -178 0
-176 -179 0
-176 -180 0
-176 -181 0
-176 -182 0
-176 -183 0
-176 -184 0
-176 -185 0
-176 -186 0
-176 -187 0
-176 -188 0
-176 -189 0
-177 -178 0
-177 -179 0
-177 -180 0
-177 -181 0
-177 -182 0
-177 -183 0
-177 -184 0
-177 -185 0
-177 -186 0
-177 -187 0
-177 -188 0
-177 -189 0
-178 -179 0
-178 -180 0
-178 -181 0
-178 -182 0
-178 -183 0
-178 -184 0
-178 -185 0
-178 -186 0
-178 -187 0
-178 -188 0
-178 -189 0
-179 -180 0
-179 -181 0
-179 -182 0
-179 -183 0
-179 -184 0
-179 -185 0
-179 -186 0
-179 -187 0
-179 -188 0
-179 -189 0
-180 -181 0
-180 -182 0
-180 -183 0
-180 -184 0
-180 -185 0
-180 -186 0
-180 -187 0
-180 -188 0
-180 -189 0
-181 -182 0
-181 -183 0
-181 -184 0
-181 -185 0
-181 -186 0
-181 -187 0
-181 -188 0
-181 -189 0
-182 -183 0
-182 -184 0
-182 -185 0
-182 -186 0
-182 -187 0
-182 -188 0
-182 -189 0
-183 -184 0
-183 -185 0
-183 -186 0
-183 -187 0
-183 -188 0
-183 -189 0
-184 -185 0
-184 -186 0
-184 -187 0
-184 -188 0
-184 -189 0
-185 -186 0
-185 -187 0
-185 -188 0
-185 -189 0
-186 -187 0
-186 -188 0
-186 -189 0
-187 -188 0
-187 -189 0
-188 -189 0
172 173 174 175 176 177 178 179 180 181 182 183 184 185 186 187 188 189 0
-190 -191 0
-190 -192 0
-190 -193 0
-190 -194 0
-190 -195 0
-190 -196 0
-190 -197 0
-190 -198 0
-190 -199 0
-190 -200 0
-190 -201 0
-190 -202 0
-190 -203 0
-190 -204 0
-190 -205 0
-190 -206 0
-190 -207 0
-191 -192 0
-191 -193 0
-191 -194 0
-191 -195 0
-191 -196 0
-191 -197 0
-191 -198 0
-191 -199 0
-191 -200 0
-191 -201 0
-191 -202 0
-191 -203 0
-191 -204 0
-191 -205 0
-191 -206 0
-191 -207 0
-192 -193 0
-192 -194 0
-192 -195 0
-192 -196 0
-192 -197 0
-192 -198 0
-192 -199 0
-192 -200 0
-192 -201 0
-192 -202 0
-192 -203 0
-192 -204 0
-192 -205 0
-192 -206 0
-192 -207 0
-193 -194 0
-193 -195 0
-193 -196 0
-193 -197 0
-193 -198 0
-193 -199 0
-193 -200 0
-193 -201 0
-193 -202 0
-193 -203 0
-193 -204 0
-193 -205 0
-193 -206 0
-193 -207 0
-194 -195 0
-194 -196 0
-194 -197 0
-194 -198 0
-194 -199 0
-194 -200 0
-194 -201 0
-194 -202 0
-194 -203 0
-194 -204 0
-194 -205 0
-194 -206 0
-194 -207 0
-195 -196 0
-195 -197 0
-195 -198 0
-195 -199 0
-195 -200 0
-195 -201 0
-195 -202 0
-195 -203 0
-195 -204 0
-195 -205 0
-195 -206 0
-195 -207 0
-196 -197 0
-196 -198 0
-196 -199 0
-196 -200 0
-196 -201 0
-196 -202 0
-196 -203 0
-196 -204 0
-196 -205 0
-196 -206 0
-196 -207 0
-197 -198 0
-197 -199 0
-197 -200 0
-197 -201 0
-197 -202 0
-197 -203 0
-197 -204 0
-197 -205 0
-197 -206 0
-197 -207 0
-198 -199 0
-198 -200 0
-198 -201 0
-198 -202 0
-198 -203 0
-198 -204 0
-198 -205 0
-198 -206 0
-198 -207 0
-199 -200 0
-199 -201 0
-199 -202 0
-199 -203 0
-199 -204 0
-199 -205 0
-199 -206 0
-199 -207 0
-200 -201 0
-200 -202 0
-200 -203 0
-200 -204 0
-200 -205 0
-200 -206 0
-200 -207 0
-201 -202 0
-201 -203 0
-201 -204 0
-201 -205 0
-201 -206 0
-201 -207 0
-202 -203 0
-202 -204 0
-202 -205 0
-202 -206 0
-202 -207 0
-203 -204 0
-203 -205 0
-203 -206 0
-203 -207 0
-204 -205 0
-204 -206 0
-204 -207 0
-205 -206 0
-205 -207 0
-206 -207 0
190 191 192 193 194 195 196 197 198 199 200 201 202 203 204 205 206 207 0
-208 -209 0
-208 -210 0
-208 -211 0
-208 -212 0
-208 -213 0
-208 -214 0
-208 -215 0
-208 -216 0
-208 -217 0
-208 -218 0
-208 -219 0
-208 -220 0
-208 -221 0
-208 -222 0
-208 -223 0
-208 -224 0
-208 -225 0
-209 -210 0
-209 -211 0
-209 -212 0
-209 -213 0
-209 -214 0
-209 -215 0
-209 -216 0
-209 -217 0
-209 -218 0
-209 -219 0
-209 -220 0
-209 -221 0
-209 -222 0
-209 -223 0
-209 -224 0
-209 -225 0
-210 -211 0
-210 -212 0
-210 -213 0
-210 -214 0
-210 -215 0
-210 -216 0
-210 -217 0
-210 -218 0
-210 -219 0
-210 -220 0
-210 -221 0
-210 -222 0
-210 -223 0
-210 -224 0
-210 -225 0
-211 -212 0
-211 -213 0
-211 -214 0
-211 -215 0
-211 -216 0
-211 -217 0
-211 -218 0
-211 -219 0
-211 -220 0
-211 -221 0
-211 -222 0
-211 -223 0
-211 -224 0
-211 -225 0
-212 -213 0
-212 -214 0
-212 -215 0
-212 -216 0
-212 -217 0
-212 -218 0
-212 -219 0
-212 -220 0
-212 -221 0
-212 -222 0
-212 -223 0
-212 -224 0
-212 -225 0
-213 -214 0
-213 -215 0
-213 -216 0
-213 -217 0
-213 -218 0
-213 -219 0
-213 -220 0
-213 -221 0
-213 -222 0
-213 -223 0
-213 -224 0
-213 -225 0
-214 -215 0
-214 -216 0
-214 -217 0
-214 -218 0
-214 -219 0
-214 -220 0
-214 -221 0
-214 -222 0
-214 -223 0
-214 -224 0
-214 -225 0
-215 -216 0
-215 -217 0
-215 -218 0
-215 -219 0
-215 -220 0
-215 -221 0
-215 -222 0
-215 -223 0
-215 -224 0
-215 -225 0
-216 -217 0
-216 -218 0
-216 -219 0
-216 -220 0
-216 -221 0
-216 -222 0
-216 -223 0
-216 -224 0
-216 -225 0
-217 -218 0
-217 -219 0
-217 -220 0
-217 -221 0
-217 -222 0
-217 -223 0
-217 -224 0
-217 -225 0
-218 -219 0
-218 -220 0
-218 -221 0
-218 -222 0
-218 -223 0
-218 -224 0
-218 -225 0
-219 -220 0
-219 -221 0
-219 -222 0
-219 -223 0
-219 -224 0
-219 -225 0
-220 -221 0
-220 -222 0
-220 -223 0
-220 -224 0
-220 -225 0
-221 -222 0
-221 -223 0
-221 -224 0
-221 -225 0
-222 -223 0
-222 -224 0
-222 -225 0
-223 -224 0
-223 -225 0
-224 -225 0
208 209 210 211 212 213 214 215 216 217 218 219 220 221 222 223 224 225 0
-226 -227 0
-226 -228 0
-226 -229 0
-226 -230 0
-226 -231 0
-226 -232 0
-226 -233 0
-226 -234 0
-226 -235 0
-226 -236 0
-226 -237 0
-226 -238 0
-226 -239 0
-226 -240 0
-226 -241 0
-226 -242 0
-226 -243 0
-227 -228 0
-227 -229 0
-227 -230 0
-227 -231 0
-227 -232 0
-227 -233 0
-227 -234 0
-227 -235 0
-227 -236 0
-227 -237 0
-227 -238 0
-227 -239 0
-227 -240 0
-227 -241 0
-227 -242 0
-227 -243 0
-228 -229 0
-228 -230 0
-228 -231 0
-228 -232 0
-228 -233 0
-228 -234 0
-228 -235 0
-228 -236 0
-228 -237 0
-228 -238 0
-228 -239 0
-228 -240 0
-228 -241 0
-228 -242 0
-228 -243 0
-229 -230 0
-229 -231 0
-229 -232 0
-229 -233 0
-229 -234 0
-229 -235 0
-229 -236 0
-229 -237 0
-229 -238 0
-229 -239 0
-229 -240 0
-229 -241 0
-229 -242 0
-229 -243 0
-230 -231 0
-230 -232 0
-230 -233 0
-230 -234 0
-230 -235 0
-230 -236 0
-230 -237 0
-230 -238 0
-230 -239 0
-230 -240 0
-230 -241 0
-230 -242 0
-230 -243 0
-231 -232 0
-231 -233 0
-231 -234 0
-231 -235 0
-231 -236 0
-231 -237 0
-231 -238 0
-231 -239 0
-231 -240 0
-231 -241 0
-231 -242 0
-231 -243 0
-232 -233 0
-232 -234 0
-232 -235 0
-232 -236 0
-232 -237 0
-232 -238 0
-232 -239 0
-232 -240 0
-232 -241 0
-232 -242 0
-232 -243 0
-233 -234 0
-233 -235 0
-233 -236 0
-233 -237 0
-233 -238 0
-233 -239 0
-233 -240 0
-233 -241 0
-233 -242 0
-233 -243 0
-234 -235 0
-234 -236 0
-234 -237 0
-234 -238 0
-234 -239 0
-234 -240 0
-234 -241 0
-234 -242 0
-234 -243 0
-235 -236 0
-235 -237 0
-235 -238 0
-235 -239 0
-235 -240 0
-235 -241 0
-235 -242 0
-235 -243 0
-236 -237 0
-236 -238 0
-236 -239 0
-236 -240 0
-236 -241 0
-236 -242 0
-236 -243 0
-237 -238 0
-237 -239 0
-237 -240 0
-237 -241 0
-237 -242 0
-237 -243 0
-238 -239 0
-238 -240 0
-238 -241 0
-238 -242 0
-238 -243 0
-239 -240 0
-239 -241 0
-239 -242 0
-239 -243 0
-240 -241 0
-240 -242 0
-240 -243 0
-241 -242 0
-241 -243 0
-242 -243 0
226 227 228 229 230 231 232 233 234 235 236 237 238 239 240 241 242 243 0
-244 -245 0
-244 -246 0
-244 -247 0
-244 -248 0
-244 -249 0
-244 -250 0
-244 -251 0
-244 -252 0
-244 -253 0
-244 -254 0
-244 -255 0
-244 -256 0
-244 -257 0
-244 -258 0
-244 -259 0
-244 -260 0
-244 -261 0
-245 -246 0
-245 -247 0
-245 -248 0
-245 -249 0
-245 -250 0
-245 -251 0
-245 -252 0
-245 -253 0
-245 -254 0
-245 -255 0
-245 -256 0
-245 -257 0
-245 -258 0
-245 -259 0
-245 -260 0
-245 -261 0
-246 -247 0
-246 -248 0
-246 -249 0
-246 -250 0
-246 -251 0
-246 -252 0
-246 -253 0
-246 -254 0
-246 -255 0
-246 -256 0
-246 -257 0
-246 -258 0
-246 -259 0
-246 -260 0
-246 -261 0
-247 -248 0
-247 -249 0
-247 -250 0
-247 -251 0
-247 -252 0
-247 -253 0
-247 -254 0
-247 -255 0
-247 -256 0
-247 -257 0
-247 -258 0
-247 -259 0
-247 -260 0
-247 -261 0
-248 -249 0
-248 -250 0
-248 -251 0
-248 -252 0
-248 -253 0
-248 -254 0
-248 -255 0
-248 -256 0
-248 -257 0
-248 -258 0
-248 -259 0
-248 -260 0
-248 -261 0
-249 -250 0
-249 -251 0
-249 -252 0
-249 -253 0
-249 -254 0
-249 -255 0
-249 -256 0
-249 -257 0
-249 -258 0
-249 -259 0
-249 -260 0
-249 -261 0
-250 -251 0
-250 -252 0
-250 -253 0
-250 -254 0
-250 -255 0
-250 -256 0
-250 -257 0
-250 -258 0
-250 -259 0
-250 -260 0
-250 -261 0
-251 -252 0
-251 -253 0
-251 -254 0
-251 -255 0
-251 -256 0
-251 -257 0
-251 -258 0
-251 -259 0
-251 -260 0
-251 -261 0
-252 -253 0
-252 -254 0
-252 -255 0
-252 -256 0
-252 -257 0
-252 -258 0
-252 -259 0
-252 -260 0
-252 -261 0
-253 -254 0
-253 -255 0
-253 -256 0
-253 -257 0
-253 -258 0
-253 -259 0
-253 -260 0
-253 -261 0
-254 -255 0
-254 -256 0
-254 -257 0
-254 -258 0
-254 -259 0
-254 -260 0
-254 -261 0
-255 -256 0
-255 -257 0
-255 -258 0
-255 -259 0
-255 -260 0
-255 -261 0
-256 -257 0
-256 -258 0
-256 -259 0
-256 -260 0
-256 -261 0
-257 -258 0
-257 -259 0
-257 -260 0
-257 -261 0
-258 -259 0
-258 -260 0
-258 -261 0
-259 -260 0
-259 -261 0
-260 -261 0
244 245 246 247 248 249 250 251 252 253 254 255 256 257 258 259 260 261 0
-154 -172 0
-154 -190 0
-154 -208 0
-154 -226 0
-154 -244 0
-172 -190 0
-172 -208 0
-172 -226 0
-172 -244 0
-190 -208 0
-190 -226 0
-190 -244 0
-208 -226 0
-208 -244 0
-226 -244 0
-155 -173 0
-155 -191 0
-155 -209 0
-155 -227 0
-155 -245 0
-173 -191 0
-173 -209 0
-173 -227 0
-173 -245 0
-191 -209 0
-191 -227 0
-191 -245 0
-209 -227 0
-209 -245 0
-227 -245 0
-156 -174 0
-156 -192 0
-156 -210 0
-156 -228 0
-156 -246 0
-174 -192 0
-174 -210 0
-174 -228 0
-174 -246 0
-192 -210 0
-192 -228 0
-192 -246 0
-210 -228 0
-210 -246 0
-228 -246 0
-157 -175 0
-157 -193 0
-157 -211 0
-157 -229 0
-157 -247 0
-175 -193 0
-175 -211 0
-175 -229 0
-175 -247 0
-193 -211 0
-193 -229 0
-193 -247 0
-211 -229 0
-211 -247 0
-229 -247 0
-158 -176 0
-158 -194 0
-158 -212 0
-158 -230 0
-158 -248 0
-176 -194 0
-176 -212 0
-176 -230 0
-176 -248 0
-194 -212 0
-194 -230 0
-194 -248 0
-212 -230 0
-212 -248 0
-230 -248 0
-159 -177 0
-159 -195 0
-159 -213 0
-159 -231 0
-159 -249 0
-177 -195 0
-177 -213 0
-177 -231 0
-177 -249 0
-195 -213 0
-195 -231 0
-195 -249 0
-213 -231 0
-213 -249 0
-231 -249 0
-160 -178 0
-160 -196 0
-160 -214 0
-160 -232 0
-160 -250 0
-178 -196 0
-178 -214 0
-178 -232 0
-178 -250 0
-196 -214 0
-196 -232 0
-196 -250 0
-214 -232 0
-214 -250 0
-232 -250 0
-161 -179 0
-161 -197 0
-161 -215 0
-161 -233 0
-161 -251 0
-179 -197 0
-179 -215 0
-179 -233 0
-179 -251 0
-197 -215 0
-197 -233 0
-197 -251 0
-215 -233 0
-215 -251 0
-233 -251 0
-162 -180 0
-162 -198 0
-162 -216 0
-162 -234 0
-162 -252 0
-180 -198 0
-180 -216 0
-180 -234 0
-180 -252 0
-198 -216 0
-198 -234 0
-198 -252 0
-216 -234 0
-216 -252 0
-234 -252 0
-163 -181 0
-163 -199 0
-163 -217 0
-163 -235 0
-163 -253 0
-181 -199 0
-181 -217 0
-181 -235 0
-181 -253 0
-199 -217 0
-199 -235 0
-199 -253 0
-217 -235 0
-217 -253 0
-235 -253 0
-164 -182 0
-164 -200 0
-164 -218 0
-164 -236 0
-164 -254 0
-182 -200 0
-182 -218 0
-182 -236 0
-182 -254 0
-200 -218 0
-200 -236 0
-200 -254 0
-218 -236 0
-218 -254 0
-236 -254 0
-165 -183 0
-165 -201 0
-165 -219 0
-165 -237 0
-165 -255 0
-183 -201 0
-183 -219 0
-183 -237 0
-183 -255 0
-201 -219 0
-201 -237 0
-201 -255 0
-219 -237 0
-219 -255 0
-237 -255 0
-166 -184 0
-166 -202 0
-166 -220 0
-166 -238 0
-166 -256 0
-184 -202 0
-184 -220 0
-184 -238 0
-184 -256 0
-202 -220 0
-202 -238 0
-202 -256 0
-220 -238 0
-220 -256 0
-238 -256 0
-167 -185 0
-167 -203 0
-167 -221 0
-167 -239 0
-167 -257 0
-185 -203 0
-185 -221 0
-185 -239 0
-185 -257 0
-203 -221 0
-203 -239 0
-203 -257 0
-221 -239 0
-221 -257 0
-239 -257 0
-168 -186 0
-168 -204 0
-168 -222 0
-168 -240 0
-168 -258 0
-186 -204 0
-186 -222 0
-186 -240 0
-186 -258 0
-204 -222 0
-204 -240 0
-204 -258 0
-222 -240 0
-222 -258 0
-240 -258 0
-169 -187 0
-169 -205 0
-169 -223 0
-169 -241 0
-169 -259 0
-187 -205 0
-187 -223 0
-187 -241 0
-187 -259 0
-205 -223 0
-205 -241 0
-205 -259 0
-223 -241 0
-223 -259 0
-241 -259 0
-170 -188 0
-170 -206 0
-170 -224 0
-170 -242 0
-170 -260 0
-188 -206 0
-188 -224 0
-188 -242 0
-188 -260 0
-206 -224 0
-206 -242 0
-206 -260 0
-224 -242 0
-224 -260 0
-242 -260 0
-171 -189 0
-171 -207 0
-171 -225 0
-171 -243 0
-171 -261 0
-189 -207 0
-189 -225 0
-189 -243 0
-189 -261 0
-207 -225 0
-207 -243 0
-207 -261 0
-225 -243 0
-225 -261 0
-243 -261 0
1 -154 -173 0
1 -154 -191 0
1 -154 -209 0
1 -154 -227 0
1 -154 -245 0
1 -172 -155 0
1 -172 -191 0
1 -172 -209 0
1 -172 -227 0
1 -172 -245 0
1 -190 -155 0
1 -190 -173 0
1 -190 -209 0
1 -190 -227 0
1 -190 -245 0
1 -208 -155 0
1 -208 -173 0
1 -208 -191 0
1 -208 -227 0
1 -208 -245 0
1 -226 -155 0
1 -226 -173 0
1 -226 -191 0
1 -226 -209 0
1 -226 -245 0
1 -244 -155 0
1 -244 -173 0
1 -244 -191 0
1 -244 -209 0
1 -244 -227 0
2 -154 -174 0
2 -154 -192 0
2 -154 -210 0
2 -154 -228 0
2 -154 -246 0
2 -172 -156 0
2 -172 -192 0
2 -172 -210 0
2 -172 -228 0
2 -172 -246 0
2 -190 -156 0
2 -190 -174 0
2 -190 -210 0
2 -190 -228 0
2 -190 -246 0
2 -208 -156 0
2 -208 -174 0
2 -208 -192 0
2 -208 -228 0
2 -208 -246 0
2 -226 -156 0
2 -226 -174 0
2 -226 -192 0
2 -226 -210 0
2 -226 -246 0
2 -244 -156 0
2 -244 -174 0
2 -244 -192 0
2 -244 -210 0
2 -244 -228 0
3 -154 -175 0
3 -154 -193 0
3 -154 -211 0
3 -154 -229 0
3 -154 -247 0
3 -172 -157 0
3 -172 -193 0
3 -172 -211 0
3 -172 -229 0
3 -172 -247 0
3 -190 -157 0
3 -190 -175 0
3 -190 -211 0
3 -190 -229 0
3 -190 -247 0
3 -208 -157 0
3 -208 -175 0
3 -208 -193 0
3 -208 -229 0
3 -208 -247 0
3 -226 -157 0
3 -226 -175 0
3 -226 -193 0
3 -226 -211 0
3 -226 -247 0
3 -244 -157 0
3 -244 -175 0
3 -244 -193 0
3 -244 -211 0
3 -244 -229 0
4 -154 -176 0
4 -154 -194 0
4 -154 -212 0
4 -154 -230 0
4 -154 -248 0
4 -172 -158 0
4 -172 -194 0
4 -172 -212 0
4 -172 -230 0
4 -172 -248 0
4 -190 -158 0
4 -190 -176 0
4 -190 -212 0
4 -190 -230 0
4 -190 -248 0
4 -208 -158 0
4 -208 -176 0
4 -208 -194 0
4 -208 -230 0
4 -208 -248 0
4 -226 -158 0
4 -226 -176 0
4 -226 -194 0
4 -226 -212 0
4 -226 -248 0
4 -244 -158 0
4 -244 -176 0
4 -244 -194 0
4 -244 -212 0
4 -244 -230 0
5 -154 -177 0
5 -154 -195 0
5 -154 -213 0
5 -154 -231 0
5 -154 -249 0
5 -172 -159 0
5 -172 -195 0
5 -172 -213 0
5 -172 -231 0
5 -172 -249 0
5 -190 -159 0
5 -190 -177 0
5 -190 -213 0
5 -190 -231 0
5 -190 -249 0
5 -208 -159 0
5 -208 -177 0
5 -208 -195 0
5 -208 -231 0
5 -208 -249 0
5 -226 -159 0
5 -226 -177 0
5 -226 -195 0
5 -226 -213 0
5 -226 -249 0
5 -244 -159 0
5 -244 -177 0
5 -244 -195 0
5 -244 -213 0
5 -244 -231 0
6 -154 -178 0
6 -154 -196 0
6 -154 -214 0
6 -154 -232 0
6 -154 -250 0
6 -172 -160 0
6 -172 -196 0
6 -172 -214 0
6 -172 -232 0
6 -172 -250 0
6 -190 -160 0
6 -190 -178 0
6 -190 -214 0
6 -190 -232 0
6 -190 -250 0
6 -208 -160 0
6 -208 -178 0
6 -208 -196 0
6 -208 -232 0
6 -208 -250 0
6 -226 -160 0
6 -226 -178 0
6 -226 -196 0
6 -226 -214 0
6 -226 -250 0
6 -244 -160 0
6 -244 -178 0
6 -244 -196 0
6 -244 -214 0
6 -244 -232 0
7 -154 -179 0
7 -154 -197 0
7 -154 -215 0
7 -154 -233 0
7 -154 -251 0
7 -172 -161 0
7 -172 -197 0
7 -172 -215 0
7 -172 -233 0
7 -172 -251 0
7 -190 -161 0
7 -190 -179 0
7 -190 -215 0
7 -190 -233 0
7 -190 -251 0
7 -208 -161 0
7 -208 -179 0
7 -208 -197 0
7 -208 -233 0
7 -208 -251 0
7 -226 -161 0
7 -226 -179 0
7 -226 -197 0
7 -226 -215 0
7 -226 -251 0
7 -244 -161 0
7 -244 -179 0
7 -244 -197 0
7 -244 -215 0
7 -244 -233 0
8 -154 -180 0
8 -154 -198 0
8 -154 -216 0
8 -154 -234 0
8 -154 -252 0
8 -172 -162 0
8 -172 -198 0
8 -172 -216 0
8 -172 -234 0
8 -172 -252 0
8 -190 -162 0
8 -190 -180 0
8 -190 -216 0
8 -190 -234 0
8 -190 -252 0
8 -208 -162 0
8 -208 -180 0
8 -208 -198 0
8 -208 -234 0
8 -208 -252 0
8 -226 -162 0
8 -226 -180 0
8 -226 -198 0
8 -226 -216 0
8 -226 -252 0
8 -244 -162 0
8 -244 -180 0
8 -244 -198 0
8 -244 -216 0
8 -244 -234 0
9 -154 -181 0
9 -154 -199 0
9 -154 -217 0
9 -154 -235 0
9 -154 -253 0
9 -172 -163 0
9 -172 -199 0
9 -172 -217 0
9 -172 -235 0
9 -172 -253 0
9 -190 -163 0
9 -190 -181 0
9 -190 -217 0
9 -190 -235 0
9 -190 -253 0
9 -208 -163 0
9 -208 -181 0
9 -208 -199 0
9 -208 -235 0
9 -208 -253 0
9 -226 -163 0
9 -226 -181 0
9 -226 -199 0
9 -226 -217 0
9 -226 -253 0
9 -244 -163 0
9 -244 -181 0
9 -244 -199 0
9 -244 -217 0
9 -244 -235 0
10 -154 -182 0
10 -154 -200 0
10 -154 -218 0
10 -154 -236 0
10 -154 -254 0
10 -172 -164 0
10 -172 -200 0
10 -172 -218 0
10 -172 -236 0
10 -172 -254 0
10 -190 -164 0
10 -190 -182 0
10 -190 -218 0
10 -190 -236 0
10 -190 -254 0
10 -208 -164 0
10 -208 -182 0
10 -208 -200 0
10 -208 -236 0
10 -208 -254 0
10 -226 -164 0
10 -226 -182 0
10 -226 -200 0
10 -226 -218 0
10 -226 -254 0
10 -244 -164 0
10 -244 -182 0
10 -244 -200 0
10 -244 -218 0
10 -244 -236 0
11 -154 -183 0
11 -154 -201 0
11 -154 -219 0
11 -154 -237 0
11 -154 -255 0
11 -172 -165 0
11 -172 -201 0
11 -172 -219 0
11 -172 -237 0
11 -172 -255 0
11 -190 -165 0
11 -190 -183 0
11 -190 -219 0
11 -190 -237 0
11 -190 -255 0
11 -208 -165 0
11 -208 -183 0
11 -208 -201 0
11 -208 -237 0
11 -208 -255 0
11 -226 -165 0
11 -226 -183 0
11 -226 -201 0
11 -226 -219 0
11 -226 -255 0
11 -244 -165 0
11 -244 -183 0
11 -244 -201 0
11 -244 -219 0
11 -244 -237 0
12 -154 -184 0
12 -154 -202 0
12 -154 -220 0
12 -154 -238 0
12 -154 -256 0
12 -172 -166 0
12 -172 -202 0
12 -172 -220 0
12 -172 -238 0
12 -172 -256 0
12 -190 -166 0
12 -190 -184 0
12 -190 -220 0
12 -190 -238 0
12 -190 -256 0
12 -208 -166 0
12 -208 -184 0
12 -208 -202 0
12 -208 -238 0
12 -208 -256 0
12 -226 -166 0
12 -226 -184 0
12 -226 -202 0
12 -226 -220 0
12 -226 -256 0
12 -244 -166 0
12 -244 -184 0
12 -244 -202 0
12 -244 -220 0
12 -244 -238 0
13 -154 -185 0
13 -154 -203 0
13 -154 -221 0
13 -154 -239 0
13 -154 -257 0
13 -172 -167 0
13 -172 -203 0
13 -172 -221 0
13 -172 -239 0
13 -172 -257 0
13 -190 -167 0
13 -190 -185 0
13 -190 -221 0
13 -190 -239 0
13 -190 -257 0
13 -208 -167 0
13 -208 -185 0
13 -208 -203 0
13 -208 -239 0
13 -208 -257 0
13 -226 -167 0
13 -226 -185 0
13 -226 -203 0
13 -226 -221 0
13 -226 -257 0
13 -244 -167 0
13 -244 -185 0
13 -244 -203 0
13 -244 -221 0
13 -244 -239 0
14 -154 -186 0
14 -154 -204 0
14 -154 -222 0
14 -154 -240 0
14 -154 -258 0
14 -172 -168 0
14 -172 -204 0
14 -172 -222 0
14 -172 -240 0
14 -172 -258 0
14 -190 -168 0
14 -190 -186 0
14 -190 -222 0
14 -190 -240 0
14 -190 -258 0
14 -208 -168 0
14 -208 -186 0
14 -208 -204 0
14 -208 -240 0
14 -208 -258 0
14 -226 -168 0
14 -226 -186 0
14 -226 -204 0
14 -226 -222 0
14 -226 -258 0
14 -244 -168 0
14 -244 -186 0
14 -244 -204 0
14 -244 -222 0
14 -244 -240 0
15 -154 -187 0
15 -154 -205 0
15 -154 -223 0
15 -154 -241 0
15 -154 -259 0
15 -172 -169 0
15 -172 -205 0
15 -172 -223 0
15 -172 -241 0
15 -172 -259 0
15 -190 -169 0
15 -190 -187 0
15 -190 -223 0
15 -190 -241 0
15 -190 -259 0
15 -208 -169 0
15 -208 -187 0
15 -208 -205 0
15 -208 -241 0
15 -208 -259 0
15 -226 -169 0
15 -226 -187 0
15 -226 -205 0
15 -226 -223 0
15 -226 -259 0
15 -244 -169 0
15 -244 -187 0
15 -244 -205 0
15 -244 -223 0
15 -244 -241 0
16 -154 -188 0
16 -154 -206 0
16 -154 -224 0
16 -154 -242 0
16 -154 -260 0
16 -172 -170 0
16 -172 -206 0
16 -172 -224 0
16 -172 -242 0
16 -172 -260 0
16 -190 -170 0
16 -190 -188 0
16 -190 -224 0
16 -190 -242 0
16 -190 -260 0
16 -208 -170 0
16 -208 -188 0
16 -208 -206 0
16 -208 -242 0
16 -208 -260 0
16 -226 -170 0
16 -226 -188 0
16 -226 -206 0
16 -226 -224 0
16 -226 -260 0
16 -244 -170 0
16 -244 -188 0
16 -244 -206 0
16 -244 -224 0
16 -244 -242 0
17 -154 -189 0
17 -154 -207 0
17 -154 -225 0
17 -154 -243 0
17 -154 -261 0
17 -172 -171 0
17 -172 -207 0
17 -172 -225 0
17 -172 -243 0
17 -172 -261 0
17 -190 -171 0
17 -190 -189 0
17 -190 -225 0
17 -190 -243 0
17 -190 -261 0
17 -208 -171 0
17 -208 -189 0
17 -208 -207 0
17 -208 -243 0
17 -208 -261 0
17 -226 -171 0
17 -226 -189 0
17 -226 -207 0
17 -226 -225 0
17 -226 -261 0
17 -244 -171 0
17 -244 -189 0
17 -244 -207 0
17 -244 -225 0
17 -244 -243 0
18 -155 -174 0
18 -155 -192 0
18 -155 -210 0
18 -155 -228 0
18 -155 -246 0
18 -173 -156 0
18 -173 -192 0
18 -173 -210 0
18 -173 -228 0
18 -173 -246 0
18 -191 -156 0
18 -191 -174 0
18 -191 -210 0
18 -191 -228 0
18 -191 -246 0
18 -209 -156 0
18 -209 -174 0
18 -209 -192 0
18 -209 -228 0
18 -209 -246 0
18 -227 -156 0
18 -227 -174 0
18 -227 -192 0
18 -227 -210 0
18 -227 -246 0
18 -245 -156 0
18 -245 -174 0
18 -245 -192 0
18 -245 -210 0
18 -245 -228 0
19 -155 -175 0
19 -155 -193 0
19 -155 -211 0
19 -155 -229 0
19 -155 -247 0
19 -173 -157 0
19 -173 -193 0
19 -173 -211 0
19 -173 -229 0
19 -173 -247 0
19 -191 -157 0
19 -191 -175 0
19 -191 -211 0
19 -191 -229 0
19 -191 -247 0
19 -209 -157 0
19 -209 -175 0
19 -209 -193 0
19 -209 -229 0
19 -209 -247 0
19 -227 -157 0
19 -227 -175 0
19 -227 -193 0
19 -227 -211 0
19 -227 -247 0
19 -245 -157 0
19 -245 -175 0
19 -245 -193 0
19 -245 -211 0
19 -245 -229 0
20 -155 -176 0
20 -155 -194 0
20 -155 -212 0
20 -155 -230 0
20 -155 -248 0
20 -173 -158 0
20 -173 -194 0
20 -173 -212 0
20 -173 -230 0
20 -173 -248 0
20 -191 -158 0
20 -191 -176 0
20 -191 -212 0
20 -191 -230 0
20 -191 -248 0
20 -209 -158 0
20 -209 -176 0
20 -209 -194 0
20 -209 -230 0
20 -209 -248 0
20 -227 -158 0
20 -227 -176 0
20 -227 -194 0
20 -227 -212 0
20 -227 -248 0
20 -245 -158 0
20 -245 -176 0
20 -245 -194 0
20 -245 -212 0
20 -245 -230 0
21 -155 -177 0
21 -155 -195 0
21 -155 -213 0
21 -155 -231 0
21 -155 -249 0
21 -173 -159 0
21 -173 -195 0
21 -173 -213 0
21 -173 -231 0
21 -173 -249 0
21 -191 -159 0
21 -191 -177 0
21 -191 -213 0
21 -191 -231 0
21 -191 -249 0
21 -209 -159 0
21 -209 -177 0
21 -209 -195 0
21 -209 -231 0
21 -209 -249 0
21 -227 -159 0
21 -227 -177 0
21 -227 -195 0
21 -227 -213 0
21 -227 -249 0
21 -245 -159 0
21 -245 -177 0
21 -245 -195 0
21 -245 -213 0
21 -245 -231 0
22 -155 -178 0
22 -155 -196 0
22 -155 -214 0
22 -155 -232 0
22 -155 -250 0
22 -173 -160 0
22 -173 -196 0
22 -173 -214 0
22 -173 -232 0
22 -173 -250 0
22 -191 -160 0
22 -191 -178 0
22 -191 -214 0
22 -191 -232 0
22 -191 -250 0
22 -209 -160 0
22 -209 -178 0
22 -209 -196 0
22 -209 -232 0
22 -209 -250 0
22 -227 -160 0
22 -227 -178 0
22 -227 -196 0
22 -227 -214 0
22 -227 -250 0
22 -245 -160 0
22 -245 -178 0
22 -245 -196 0
22 -245 -214 0
22 -245 -232 0
23 -155 -179 0
23 -155 -197 0
23 -155 -215 0
23 -155 -233 0
23 -155 -251 0
23 -173 -161 0
23 -173 -197 0
23 -173 -215 0
23 -173 -233 0
23 -173 -251 0
23 -191 -161 0
23 -191 -179 0
23 -191 -215 0
23 -191 -233 0
23 -191 -251 0
23 -209 -161 0
23 -209 -179 0
23 -209 -197 0
23 -209 -233 0
23 -209 -251 0
23 -227 -161 0
23 -227 -179 0
23 -227 -197 0
23 -227 -215 0
23 -227 -251 0
23 -245 -161 0
23 -245 -179 0
23 -245 -197 0
23 -245 -215 0
23 -245 -233 0
24 -155 -180 0
24 -155 -198 0
24 -155 -216 0
24 -155 -234 0
24 -155 -252 0
24 -173 -162 0
24 -173 -198 0
24 -173 -216 0
24 -173 -234 0
24 -173 -252 0
24 -191 -162 0
24 -191 -180 0
24 -191 -216 0
24 -191 -234 0
24 -191 -252 0
24 -209 -162 0
24 -209 -180 0
24 -209 -198 0
24 -209 -234 0
24 -209 -252 0
24 -227 -162 0
24 -227 -180 0
24 -227 -198 0
24 -227 -216 0
24 -227 -252 0
24 -245 -162 0
24 -245 -180 0
24 -245 -198 0
24 -245 -216 0
24 -245 -234 0
25 -155 -181 0
25 -155 -199 0
25 -155 -217 0
25 -155 -235 0
25 -155 -253 0
25 -173 -163 0
25 -173 -199 0
25 -173 -217 0
25 -173 -235 0
25 -173 -253 0
25 -191 -163 0
25 -191 -181 0
25 -191 -217 0
25 -191 -235 0
25 -191 -253 0
25 -209 -163 0
25 -209 -181 0
25 -209 -199 0
25 -209 -235 0
25 -209 -253 0
25 -227 -163 0
25 -227 -181 0
25 -227 -199 0
25 -227 -217 0
25 -227 -253 0
25 -245 -163 0
25 -245 -181 0
25 -245 -199 0
25 -245 -217 0
25 -245 -235 0
26 -155 -182 0
26 -155 -200 0
26 -155 -218 0
26 -155 -236 0
26 -155 -254 0
26 -173 -164 0
26 -173 -200 0
26 -173 -218 0
26 -173 -236 0
26 -173 -254 0
26 -191 -164 0
26 -191 -182 0
26 -191 -218 0
26 -191 -236 0
26 -191 -254 0
26 -209 -164 0
26 -209 -182 0
26 -209 -200 0
26 -209 -236 0
26 -209 -254 0
26 -227 -164 0
26 -227 -182 0
26 -227 -200 0
26 -227 -218 0
26 -227 -254 0
26 -245 -164 0
26 -245 -182 0
26 -245 -200 0
26 -245 -218 0
26 -245 -236 0
27 -155 -183 0
27 -155 -201 0
27 -155 -219 0
27 -155 -237 0
27 -155 -255 0
27 -173 -165 0
27 -173 -201 0
27 -173 -219 0
27 -173 -237 0
27 -173 -255 0
27 -191 -165 0
27 -191 -183 0
27 -191 -219 0
27 -191 -237 0
27 -191 -255 0
27 -209 -165 0
27 -209 -183 0
27 -209 -201 0
27 -209 -237 0
27 -209 -255 0
27 -227 -165 0
27 -227 -183 0
27 -227 -201 0
27 -227 -219 0
27 -227 -255 0
27 -245 -165 0
27 -245 -183 0
27 -245 -201 0
27 -245 -219 0
27 -245 -237 0
28 -155 -184 0
28 -155 -202 0
28 -155 -220 0
28 -155 -238 0
28 -155 -256 0
28 -173 -166 0
28 -173 -202 0
28 -173 -220 0
28 -173 -238 0
28 -173 -256 0
28 -191 -166 0
28 -191 -184 0
28 -191 -220 0
28 -191 -238 0
28 -191 -256 0
28 -209 -166 0
28 -209 -184 0
28 -209 -202 0
28 -209 -238 0
28 -209 -256 0
28 -227 -166 0
28 -227 -184 0
28 -227 -202 0
28 -227 -220 0
28 -227 -256 0
28 -245 -166 0
28 -245 -184 0
28 -245 -202 0
28 -245 -220 0
28 -245 -238 0
29 -155 -185 0
29 -155 -203 0
29 -155 -221 0
29 -155 -239 0
29 -155 -257 0
29 -173 -167 0
29 -173 -203 0
29 -173 -221 0
29 -173 -239 0
29 -173 -257 0
29 -191 -167 0
29 -191 -185 0
29 -191 -221 0
29 -191 -239 0
29 -191 -257 0
29 -209 -167 0
29 -209 -185 0
29 -209 -203 0
29 -209 -239 0
29 -209 -257 0
29 -227 -167 0
29 -227 -185 0
29 -227 -203 0
29 -227 -221 0
29 -227 -257 0
29 -245 -167 0
29 -245 -185 0
29 -245 -203 0
29 -245 -221 0
29 -245 -239 0
30 -155 -186 0
30 -155 -204 0
30 -155 -222 0
30 -155 -240 0
30 -155 -258 0
30 -173 -168 0
30 -173 -204 0
30 -173 -222 0
30 -173 -240 0
30 -173 -258 0
30 -191 -168 0
30 -191 -186 0
30 -191 -222 0
30 -191 -240 0
30 -191 -258 0
30 -209 -168 0
30 -209 -186 0
30 -209 -204 0
30 -209 -240 0
30 -209 -258 0
30 -227 -168 0
30 -227 -186 0
30 -227 -204 0
30 -227 -222 0
30 -227 -258 0
30 -245 -168 0
30 -245 -186 0
30 -245 -204 0
30 -245 -222 0
30 -245 -240 0
31 -155 -187 0
31 -155 -205 0
31 -155 -223 0
31 -155 -241 0
31 -155 -259 0
31 -173 -169 0
31 -173 -205 0
31 -173 -223 0
31 -173 -241 0
31 -173 -259 0
31 -191 -169 0
31 -191 -187 0
31 -191 -223 0
31 -191 -241 0
31 -191 -259 0
31 -209 -169 0
31 -209 -187 0
31 -209 -205 0
31 -209 -241 0
31 -209 -259 0
31 -227 -169 0
31 -227 -187 0
31 -227 -205 0
31 -227 -223 0
31 -227 -259 0
31 -245 -169 0
31 -245 -187 0
31 -245 -205 0
31 -245 -223 0
31 -245 -241 0
32 -155 -188 0
32 -155 -206 0
32 -155 -224 0
32 -155 -242 0
32 -155 -260 0
32 -173 -170 0
32 -173 -206 0
32 -173 -224 0
32 -173 -242 0
32 -173 -260 0
32 -191 -170 0
32 -191 -188 0
32 -191 -224 0
32 -191 -242 0
32 -191 -260 0
32 -209 -170 0
32 -209 -188 0
32 -209 -206 0
32 -209 -242 0
32 -209 -260 0
32 -227 -170 0
32 -227 -188 0
32 -227 -206 0
32 -227 -224 0
32 -227 -260 0
32 -245 -170 0
32 -245 -188 0
32 -245 -206 0
32 -245 -224 0
32 -245 -242 0
33 -155 -189 0
33 -155 -207 0
33 -155 -225 0
33 -155 -243 0
33 -155 -261 0
33 -173 -171 0
33 -173 -207 0
33 -173 -225 0
33 -173 -243 0
33 -173 -261 0
33 -191 -171 0
33 -191 -189 0
33 -191 -225 0
33 -191 -243 0
33 -191 -261 0
33 -209 -171 0
33 -209 -189 0
33 -209 -207 0
33 -209 -243 0
33 -209 -261 0
33 -227 -171 0
33 -227 -189 0
33 -227 -207 0
33 -227 -225 0
33 -227 -261 0
33 -245 -171 0
33 -245 -189 0
33 -245 -207 0
33 -245 -225 0
33 -245 -243 0
34 -156 -175 0
34 -156 -193 0
34 -156 -211 0
34 -156 -229 0
34 -156 -247 0
34 -174 -157 0
34 -174 -193 0
34 -174 -211 0
34 -174 -229 0
34 -174 -247 0
34 -192 -157 0
34 -192 -175 0
34 -192 -211 0
34 -192 -229 0
34 -192 -247 0
34 -210 -157 0
34 -210 -175 0
34 -210 -193 0
34 -210 -229 0
34 -210 -247 0
34 -228 -157 0
34 -228 -175 0
34 -228 -193 0
34 -228 -211 0
34 -228 -247 0
34 -246 -157 0
34 -246 -175 0
34 -246 -193 0
34 -246 -211 0
34 -246 -229 0
35 -156 -176 0
35 -156 -194 0
35 -156 -212 0
35 -156 -230 0
35 -156 -248 0
35 -174 -158 0
35 -174 -194 0
35 -174 -212 0
35 -174 -230 0
35 -174 -248 0
35 -192 -158 0
35 -192 -176 0
35 -192 -212 0
35 -192 -230 0
35 -192 -248 0
35 -210 -158 0
35 -210 -176 0
35 -210 -194 0
35 -210 -230 0
35 -210 -248 0
35 -228 -158 0
35 -228 -176 0
35 -228 -194 0
35 -228 -212 0
35 -228 -248 0
35 -246 -158 0
35 -246 -176 0
35 -246 -194 0
35 -246 -212 0
35 -246 -230 0
36 -156 -177 0
36 -156 -195 0
36 -156 -213 0
36 -156 -231 0
36 -156 -249 0
36 -174 -159 0
36 -174 -195 0
36 -174 -213 0
36 -174 -231 0
36 -174 -249 0
36 -192 -159 0
36 -192 -177 0
36 -192 -213 0
36 -192 -231 0
36 -192 -249 0
36 -210 -159 0
36 -210 -177 0
36 -210 -195 0
36 -210 -231 0
36 -210 -249 0
36 -228 -159 0
36 -228 -177 0
36 -228 -195 0
36 -228 -213 0
36 -228 -249 0
36 -246 -159 0
36 -246 -177 0
36 -246 -195 0
36 -246 -213 0
36 -246 -231 0
37 -156 -178 0
37 -156 -196 0
37 -156 -214 0
37 -156 -232 0
37 -156 -250 0
37 -174 -160 0
37 -174 -196 0
37 -174 -214 0
37 -174 -232 0
37 -174 -250 0
37 -192 -160 0
37 -192 -178 0
37 -192 -214 0
37 -192 -232 0
37 -192 -250 0
37 -210 -160 0
37 -210 -178 0
37 -210 -196 0
37 -210 -232 0
37 -210 -250 0
37 -228 -160 0
37 -228 -178 0
37 -228 -196 0
37 -228 -214 0
37 -228 -250 0
37 -246 -160 0
37 -246 -178 0
37 -246 -196 0
37 -246 -214 0
37 -246 -232 0
38 -156 -179 0
38 -156 -197 0
38 -156 -215 0
38 -156 -233 0
38 -156 -251 0
38 -174 -161 0
38 -174 -197 0
38 -174 -215 0
38 -174 -233 0
38 -174 -251 0
38 -192 -161 0
38 -192 -179 0
38 -192 -215 0
38 -192 -233 0
38 -192 -251 0
38 -210 -161 0
38 -210 -179 0
38 -210 -197 0
38 -210 -233 0
38 -210 -251 0
38 -228 -161 0
38 -228 -179 0
38 -228 -197 0
38 -228 -215 0
38 -228 -251 0
38 -246 -161 0
38 -246 -179 0
38 -246 -197 0
38 -246 -215 0
38 -246 -233 0
39 -156 -180 0
39 -156 -198 0
39 -156 -216 0
39 -156 -234 0
39 -156 -252 0
39 -174 -162 0
39 -174 -198 0
39 -174 -216 0
39 -174 -234 0
39 -174 -252 0
39 -192 -162 0
39 -192 -180 0
39 -192 -216 0
39 -192 -234 0
39 -192 -252 0
39 -210 -162 0
39 -210 -180 0
39 -210 -198 0
39 -210 -234 0
39 -210 -252 0
39 -228 -162 0
39 -228 -180 0
39 -228 -198 0
39 -228 -216 0
39 -228 -252 0
39 -246 -162 0
39 -246 -180 0
39 -246 -198 0
39 -246 -216 0
39 -246 -234 0
40 -156 -181 0
40 -156 -199 0
40 -156 -217 0
40 -156 -235 0
40 -156 -253 0
40 -174 -163 0
40 -174 -199 0
40 -174 -217 0
40 -174 -235 0
40 -174 -253 0
40 -192 -163 0
40 -192 -181 0
40 -192 -217 0
40 -192 -235 0
40 -192 -253 0
40 -210 -163 0
40 -210 -181 0
40 -210 -199 0
40 -210 -235 0
40 -210 -253 0
40 -228 -163 0
40 -228 -181 0
40 -228 -199 0
40 -228 -217 0
40 -228 -253 0
40 -246 -163 0
40 -246 -181 0
40 -246 -199 0
40 -246 -217 0
40 -246 -235 0
41 -156 -182 0
41 -156 -200 0
41 -156 -218 0
41 -156 -236 0
41 -156 -254 0
41 -174 -164 0
41 -174 -200 0
41 -174 -218 0
41 -174 -236 0
41 -174 -254 0
41 -192 -164 0
41 -192 -182 0
41 -192 -218 0
41 -192 -236 0
41 -192 -254 0
41 -210 -164 0
41 -210 -182 0
41 -210 -200 0
41 -210 -236 0
41 -210 -254 0
41 -228 -164 0
41 -228 -182 0
41 -228 -200 0
41 -228 -218 0
41 -228 -254 0
41 -246 -164 0
41 -246 -182 0
41 -246 -200 0
41 -246 -218 0
41 -246 -236 0
42 -156 -183 0
42 -156 -201 0
42 -156 -219 0
42 -156 -237 0
42 -156 -255 0
42 -174 -165 0
42 -174 -201 0
42 -174 -219 0
42 -174 -237 0
42 -174 -255 0
42 -192 -165 0
42 -192 -183 0
42 -192 -219 0
42 -192 -237 0
42 -192 -255 0
42 -210 -165 0
42 -210 -183 0
42 -210 -201 0
42 -210 -237 0
42 -210 -255 0
42 -228 -165 0
42 -228 -183 0
42 -228 -201 0
42 -228 -219 0
42 -228 -255 0
42 -246 -165 0
42 -246 -183 0
42 -246 -201 0
42 -246 -219 0
42 -246 -237 0
43 -156 -184 0
43 -156 -202 0
43 -156 -220 0
43 -156 -238 0
43 -156 -256 0
43 -174 -166 0
43 -174 -202 0
43 -174 -220 0
43 -174 -238 0
43 -174 -256 0
43 -192 -166 0
43 -192 -184 0
43 -192 -220 0
43 -192 -238 0
43 -192 -256 0
43 -210 -166 0
43 -210 -184 0
43 -210 -202 0
43 -210 -238 0
43 -210 -256 0
43 -228 -166 0
43 -228 -184 0
43 -228 -202 0
43 -228 -220 0
43 -228 -256 0
43 -246 -166 0
43 -246 -184 0
43 -246 -202 0
43 -246 -220 0
43 -246 -238 0
44 -156 -185 0
44 -156 -203 0
44 -156 -221 0
44 -156 -239 0
44 -156 -257 0
44 -174 -167 0
44 -174 -203 0
44 -174 -221 0
44 -174 -239 0
44 -174 -257 0
44 -192 -167 0
44 -192 -185 0
44 -192 -221 0
44 -192 -239 0
44 -192 -257 0
44 -210 -167 0
44 -210 -185 0
44 -210 -203 0
44 -210 -239 0
44 -210 -257 0
44 -228 -167 0
44 -228 -185 0
44 -228 -203 0
44 -228 -221 0
44 -228 -257 0
44 -246 -167 0
44 -246 -185 0
44 -246 -203 0
44 -246 -221 0
44 -246 -239 0
45 -156 -186 0
45 -156 -204 0
45 -156 -222 0
45 -156 -240 0
45 -156 -258 0
45 -174 -168 0
45 -174 -204 0
45 -174 -222 0
45 -174 -240 0
45 -174 -258 0
45 -192 -168 0
45 -192 -186 0
45 -192 -222 0
45 -192 -240 0
45 -192 -258 0
45 -210 -168 0
45 -210 -186 0
45 -210 -204 0
45 -210 -240 0
45 -210 -258 0
45 -228 -168 0
45 -228 -186 0
45 -228 -204 0
45 -228 -222 0
45 -228 -258 0
45 -246 -168 0
45 -246 -186 0
45 -246 -204 0
45 -246 -222 0
45 -246 -240 0
46 -156 -187 0
46 -156 -205 0
46 -156 -223 0
46 -156 -241 0
46 -156 -259 0
46 -174 -169 0
46 -174 -205 0
46 -174 -223 0
46 -174 -241 0
46 -174 -259 0
46 -192 -169 0
46 -192 -187 0
46 -192 -223 0
46 -192 -241 0
46 -192 -259 0
46 -210 -169 0
46 -210 -187 0
46 -210 -205 0
46 -210 -241 0
46 -210 -259 0
46 -228 -169 0
46 -228 -187 0
46 -228 -205 0
46 -228 -223 0
46 -228 -259 0
46 -246 -169 0
46 -246 -187 0
46 -246 -205 0
46 -246 -223 0
46 -246 -241 0
47 -156 -188 0
47 -156 -206 0
47 -156 -224 0
47 -156 -242 0
47 -156 -260 0
47 -174 -170 0
47 -174 -206 0
47 -174 -224 0
47 -174 -242 0
47 -174 -260 0
47 -192 -170 0
47 -192 -188 0
47 -192 -224 0
47 -192 -242 0
47 -192 -260 0
47 -210 -170 0
47 -210 -188 0
47 -210 -206 0
47 -210 -242 0
47 -210 -260 0
47 -228 -170 0
47 -228 -188 0
47 -228 -206 0
47 -228 -224 0
47 -228 -260 0
47 -246 -170 0
47 -246 -188 0
47 -246 -206 0
47 -246 -224 0
47 -246 -242 0
48 -156 -189 0
48 -156 -207 0
48 -156 -225 0
48 -156 -243 0
48 -156 -261 0
48 -174 -171 0
48 -174 -207 0
48 -174 -225 0
48 -174 -243 0
48 -174 -261 0
48 -192 -171 0
48 -192 -189 0
48 -192 -225 0
48 -192 -243 0
48 -192 -261 0
48 -210 -171 0
48 -210 -189 0
48 -210 -207 0
48 -210 -243 0
48 -210 -261 0
48 -228 -171 0
48 -228 -189 0
48 -228 -207 0
48 -228 -225 0
48 -228 -261 0
48 -246 -171 0
48 -246 -189 0
48 -246 -207 0
48 -246 -225 0
48 -246 -243 0
49 -157 -176 0
49 -157 -194 0
49 -157 -212 0
49 -157 -230 0
49 -157 -248 0
49 -175 -158 0
49 -175 -194 0
49 -175 -212 0
49 -175 -230 0
49 -175 -248 0
49 -193 -158 0
49 -193 -176 0
49 -193 -212 0
49 -193 -230 0
49 -193 -248 0
49 -211 -158 0
49 -211 -176 0
49 -211 -194 0
49 -211 -230 0
49 -211 -248 0
49 -229 -158 0
49 -229 -176 0
49 -229 -194 0
49 -229 -212 0
49 -229 -248 0
49 -247 -158 0
49 -247 -176 0
49 -247 -194 0
49 -247 -212 0
49 -247 -230 0
50 -157 -177 0
50 -157 -195 0
50 -157 -213 0
50 -157 -231 0
50 -157 -249 0
50 -175 -159 0
50 -175 -195 0
50 -175 -213 0
50 -175 -231 0
50 -175 -249 0
50 -193 -159 0
50 -193 -177 0
50 -193 -213 0
50 -193 -231 0
50 -193 -249 0
50 -211 -159 0
50 -211 -177 0
50 -211 -195 0
50 -211 -231 0
50 -211 -249 0
50 -229 -159 0
50 -229 -177 0
50 -229 -195 0
50 -229 -213 0
50 -229 -249 0
50 -247 -159 0
50 -247 -177 0
50 -247 -195 0
50 -247 -213 0
50 -247 -231 0
51 -157 -178 0
51 -157 -196 0
51 -157 -214 0
51 -157 -232 0
51 -157 -250 0
51 -175 -160 0
51 -175 -196 0
51 -175 -214 0
51 -175 -232 0
51 -175 -250 0
51 -193 -160 0
51 -193 -178 0
51 -193 -214 0
51 -193 -232 0
51 -193 -250 0
51 -211 -160 0
51 -211 -178 0
51 -211 -196 0
51 -211 -232 0
51 -211 -250 0
51 -229 -160 0
51 -229 -178 0
51 -229 -196 0
51 -229 -214 0
51 -229 -250 0
51 -247 -160 0
51 -247 -178 0
51 -247 -196 0
51 -247 -214 0
51 -247 -232 0
52 -157 -179 0
52 -157 -197 0
52 -157 -215 0
52 -157 -233 0
52 -157 -251 0
52 -175 -161 0
52 -175 -197 0
52 -175 -215 0
52 -175 -233 0
52 -175 -251 0
52 -193 -161 0
52 -193 -179 0
52 -193 -215 0
52 -193 -233 0
52 -193 -251 0
52 -211 -161 0
52 -211 -179 0
52 -211 -197 0
52 -211 -233 0
52 -211 -251 0
52 -229 -161 0
52 -229 -179 0
52 -229 -197 0
52 -229 -215 0
52 -229 -251 0
52 -247 -161 0
52 -247 -179 0
52 -247 -197 0
52 -247 -215 0
52 -247 -233 0
53 -157 -180 0
53 -157 -198 0
53 -157 -216 0
53 -157 -234 0
53 -157 -252 0
53 -175 -162 0
53 -175 -198 0
53 -175 -216 0
53 -175 -234 0
53 -175 -252 0
53 -193 -162 0
53 -193 -180 0
53 -193 -216 0
53 -193 -234 0
53 -193 -252 0
53 -211 -162 0
53 -211 -180 0
53 -211 -198 0
53 -211 -234 0
53 -211 -252 0
53 -229 -162 0
53 -229 -180 0
53 -229 -198 0
53 -229 -216 0
53 -229 -252 0
53 -247 -162 0
53 -247 -180 0
53 -247 -198 0
53 -247 -216 0
53 -247 -234 0
54 -157 -181 0
54 -157 -199 0
54 -157 -217 0
54 -157 -235 0
54 -157 -253 0
54 -175 -163 0
54 -175 -199 0
54 -175 -217 0
54 -175 -235 0
54 -175 -253 0
54 -193 -163 0
54 -193 -181 0
54 -193 -217 0
54 -193 -235 0
54 -193 -253 0
54 -211 -163 0
54 -211 -181 0
54 -211 -199 0
54 -211 -235 0
54 -211 -253 0
54 -229 -163 0
54 -229 -181 0
54 -229 -199 0
54 -229 -217 0
54 -229 -253 0
54 -247 -163 0
54 -247 -181 0
54 -247 -199 0
54 -247 -217 0
54 -247 -235 0
55 -157 -182 0
55 -157 -200 0
55 -157 -218 0
55 -157 -236 0
55 -157 -254 0
55 -175 -164 0
55 -175 -200 0
55 -175 -218 0
55 -175 -236 0
55 -175 -254 0
55 -193 -164 0
55 -193 -182 0
55 -193 -218 0
55 -193 -236 0
55 -193 -254 0
55 -211 -164 0
55 -211 -182 0
55 -211 -200 0
55 -211 -236 0
55 -211 -254 0
55 -229 -164 0
55 -229 -182 0
55 -229 -200 0
55 -229 -218 0
55 -229 -254 0
55 -247 -164 0
55 -247 -182 0
55 -247 -200 0
55 -247 -218 0
55 -247 -236 0
56 -157 -183 0
56 -157 -201 0
56 -157 -219 0
56 -157 -237 0
56 -157 -255 0
56 -175 -165 0
56 -175 -201 0
56 -175 -219 0
56 -175 -237 0
56 -175 -255 0
56 -193 -165 0
56 -193 -183 0
56 -193 -219 0
56 -193 -237 0
56 -193 -255 0
56 -211 -165 0
56 -211 -183 0
56 -211 -201 0
56 -211 -237 0
56 -211 -255 0
56 -229 -165 0
56 -229 -183 0
56 -229 -201 0
56 -229 -219 0
56 -229 -255 0
56 -247 -165 0
56 -247 -183 0
56 -247 -201 0
56 -247 -219 0
56 -247 -237 0
57 -157 -184 0
57 -157 -202 0
57 -157 -220 0
57 -157 -238 0
57 -157 -256 0
57 -175 -166 0
57 -175 -202 0
57 -175 -220 0
57 -175 -238 0
57 -175 -256 0
57 -193 -166 0
57 -193 -184 0
57 -193 -220 0
57 -193 -238 0
57 -193 -256 0
57 -211 -166 0
57 -211 -184 0
57 -211 -202 0
57 -211 -238 0
57 -211 -256 0
57 -229 -166 0
57 -229 -184 0
57 -229 -202 0
57 -229 -220 0
57 -229 -256 0
57 -247 -166 0
57 -247 -184 0
57 -247 -202 0
57 -247 -220 0
57 -247 -238 0
58 -157 -185 0
58 -157 -203 0
58 -157 -221 0
58 -157 -239 0
58 -157 -257 0
58 -175 -167 0
58 -175 -203 0
58 -175 -221 0
58 -175 -239 0
58 -175 -257 0
58 -193 -167 0
58 -193 -185 0
58 -193 -221 0
58 -193 -239 0
58 -193 -257 0
58 -211 -167 0
58 -211 -185 0
58 -211 -203 0
58 -211 -239 0
58 -211 -257 0
58 -229 -167 0
58 -229 -185 0
58 -229 -203 0
58 -229 -221 0
58 -229 -257 0
58 -247 -167 0
58 -247 -185 0
58 -247 -203 0
58 -247 -221 0
58 -247 -239 0
59 -157 -186 0
59 -157 -204 0
59 -157 -222 0
59 -157 -240 0
59 -157 -258 0
59 -175 -168 0
59 -175 -204 0
59 -175 -222 0
59 -175 -240 0
59 -175 -258 0
59 -193 -168 0
59 -193 -186 0
59 -193 -222 0
59 -193 -240 0
59 -193 -258 0
59 -211 -168 0
59 -211 -186 0
59 -211 -204 0
59 -211 -240 0
59 -211 -258 0
59 -229 -168 0
59 -229 -186 0
59 -229 -204 0
59 -229 -222 0
59 -229 -258 0
59 -247 -168 0
59 -247 -186 0
59 -247 -204 0
59 -247 -222 0
59 -247 -240 0
60 -157 -187 0
60 -157 -205 0
60 -157 -223 0
60 -157 -241 0
60 -157 -259 0
60 -175 -169 0
60 -175 -205 0
60 -175 -223 0
60 -175 -241 0
60 -175 -259 0
60 -193 -169 0
60 -193 -187 0
60 -193 -223 0
60 -193 -241 0
60 -193 -259 0
60 -211 -169 0
60 -211 -187 0
60 -211 -205 0
60 -211 -241 0
60 -211 -259 0
60 -229 -169 0
60 -229 -187 0
60 -229 -205 0
60 -229 -223 0
60 -229 -259 0
60 -247 -169 0
60 -247 -187 0
60 -247 -205 0
60 -247 -223 0
60 -247 -241 0
61 -157 -188 0
61 -157 -206 0
61 -157 -224 0
61 -157 -242 0
61 -157 -260 0
61 -175 -170 0
61 -175 -206 0
61 -175 -224 0
61 -175 -242 0
61 -175 -260 0
61 -193 -170 0
61 -193 -188 0
61 -193 -224 0
61 -193 -242 0
61 -193 -260 0
61 -211 -170 0
61 -211 -188 0
61 -211 -206 0
61 -211 -242 0
61 -211 -260 0
61 -229 -170 0
61 -229 -188 0
61 -229 -206 0
61 -229 -224 0
61 -229 -260 0
61 -247 -170 0
61 -247 -188 0
61 -247 -206 0
61 -247 -224 0
61 -247 -242 0
62 -157 -189 0
62 -157 -207 0
62 -157 -225 0
62 -157 -243 0
62 -157 -261 0
62 -175 -171 0
62 -175 -207 0
62 -175 -225 0
62 -175 -243 0
62 -175 -261 0
62 -193 -171 0
62 -193 -189 0
62 -193 -225 0
62 -193 -243 0
62 -193 -261 0
62 -211 -171 0
62 -211 -189 0
62 -211 -207 0
62 -211 -243 0
62 -211 -261 0
62 -229 -171 0
62 -229 -189 0
62 -229 -207 0
62 -229 -225 0
62 -229 -261 0
62 -247 -171 0
62 -247 -189 0
62 -247 -207 0
62 -247 -225 0
62 -247 -243 0
63 -158 -177 0
63 -158 -195 0
63 -158 -213 0
63 -158 -231 0
63 -158 -249 0
63 -176 -159 0
63 -176 -195 0
63 -176 -213 0
63 -176 -231 0
63 -176 -249 0
63 -194 -159 0
63 -194 -177 0
63 -194 -213 0
63 -194 -231 0
63 -194 -249 0
63 -212 -159 0
63 -212 -177 0
63 -212 -195 0
63 -212 -231 0
63 -212 -249 0
63 -230 -159 0
63 -230 -177 0
63 -230 -195 0
63 -230 -213 0
63 -230 -249 0
63 -248 -159 0
63 -248 -177 0
63 -248 -195 0
63 -248 -213 0
63 -248 -231 0
64 -158 -178 0
64 -158 -196 0
64 -158 -214 0
64 -158 -232 0
64 -158 -250 0
64 -176 -160 0
64 -176 -196 0
64 -176 -214 0
64 -176 -232 0
64 -176 -250 0
64 -194 -160 0
64 -194 -178 0
64 -194 -214 0
64 -194 -232 0
64 -194 -250 0
64 -212 -160 0
64 -212 -178 0
64 -212 -196 0
64 -212 -232 0
64 -212 -250 0
64 -230 -160 0
64 -230 -178 0
64 -230 -196 0
64 -230 -214 0
64 -230 -250 0
64 -248 -160 0
64 -248 -178 0
64 -248 -196 0
64 -248 -214 0
64 -248 -232 0
65 -158 -179 0
65 -158 -197 0
65 -158 -215 0
65 -158 -233 0
65 -158 -251 0
65 -176 -161 0
65 -176 -197 0
65 -176 -215 0
65 -176 -233 0
65 -176 -251 0
65 -194 -161 0
65 -194 -179 0
65 -194 -215 0
65 -194 -233 0
65 -194 -251 0
65 -212 -161 0
65 -212 -179 0
65 -212 -197 0
65 -212 -233 0
65 -212 -251 0
65 -230 -161 0
65 -230 -179 0
65 -230 -197 0
65 -230 -215 0
65 -230 -251 0
65 -248 -161 0
65 -248 -179 0
65 -248 -197 0
65 -248 -215 0
65 -248 -233 0
66 -158 -180 0
66 -158 -198 0
66 -158 -216 0
66 -158 -234 0
66 -158 -252 0
66 -176 -162 0
66 -176 -198 0
66 -176 -216 0
66 -176 -234 0
66 -176 -252 0
66 -194 -162 0
66 -194 -180 0
66 -194 -216 0
66 -194 -234 0
66 -194 -252 0
66 -212 -162 0
66 -212 -180 0
66 -212 -198 0
66 -212 -234 0
66 -212 -252 0
66 -230 -162 0
66 -230 -180 0
66 -230 -198 0
66 -230 -216 0
66 -230 -252 0
66 -248 -162 0
66 -248 -180 0
66 -248 -198 0
66 -248 -216 0
66 -248 -234 0
67 -158 -181 0
67 -158 -199 0
67 -158 -217 0
67 -158 -235 0
67 -158 -253 0
67 -176 -163 0
67 -176 -199 0
67 -176 -217 0
67 -176 -235 0
67 -176 -253 0
67 -194 -163 0
67 -194 -181 0
67 -194 -217 0
67 -194 -235 0
67 -194 -253 0
67 -212 -163 0
67 -212 -181 0
67 -212 -199 0
67 -212 -235 0
67 -212 -253 0
67 -230 -163 0
67 -230 -181 0
67 -230 -199 0
67 -230 -217 0
67 -230 -253 0
67 -248 -163 0
67 -248 -181 0
67 -248 -199 0
67 -248 -217 0
67 -248 -235 0
68 -158 -182 0
68 -158 -200 0
68 -158 -218 0
68 -158 -236 0
68 -158 -254 0
68 -176 -164 0
68 -176 -200 0
68 -176 -218 0
68 -176 -236 0
68 -176 -254 0
68 -194 -164 0
68 -194 -182 0
68 -194 -218 0
68 -194 -236 0
68 -194 -254 0
68 -212 -164 0
68 -212 -182 0
68 -212 -200 0
68 -212 -236 0
68 -212 -254 0
68 -230 -164 0
68 -230 -182 0
68 -230 -200 0
68 -230 -218 0
68 -230 -254 0
68 -248 -164 0
68 -248 -182 0
68 -248 -200 0
68 -248 -218 0
68 -248 -236 0
69 -158 -183 0
69 -158 -201 0
69 -158 -219 0
69 -158 -237 0
69 -158 -255 0
69 -176 -165 0
69 -176 -201 0
69 -176 -219 0
69 -176 -237 0
69 -176 -255 0
69 -194 -165 0
69 -194 -183 0
69 -194 -219 0
69 -194 -237 0
69 -194 -255 0
69 -212 -165 0
69 -212 -183 0
69 -212 -201 0
69 -212 -237 0
69 -212 -255 0
69 -230 -165 0
69 -230 -183 0
69 -230 -201 0
69 -230 -219 0
69 -230 -255 0
69 -248 -165 0
69 -248 -183 0
69 -248 -201 0
69 -248 -219 0
69 -248 -237 0
70 -158 -184 0
70 -158 -202 0
70 -158 -220 0
70 -158 -238 0
70 -158 -256 0
70 -176 -166 0
70 -176 -202 0
70 -176 -220 0
70 -176 -238 0
70 -176 -256 0
70 -194 -166 0
70 -194 -184 0
70 -194 -220 0
70 -194 -238 0
70 -194 -256 0
70 -212 -166 0
70 -212 -184 0
70 -212 -202 0
70 -212 -238 0
70 -212 -256 0
70 -230 -166 0
70 -230 -184 0
70 -230 -202 0
70 -230 -220 0
70 -230 -256 0
70 -248 -166 0
70 -248 -184 0
70 -248 -202 0
70 -248 -220 0
70 -248 -238 0
71 -158 -185 0
71 -158 -203 0
71 -158 -221 0
71 -158 -239 0
71 -158 -257 0
71 -176 -167 0
71 -176 -203 0
71 -176 -221 0
71 -176 -239 0
71 -176 -257 0
71 -194 -167 0
71 -194 -185 0
71 -194 -221 0
71 -194 -239 0
71 -194 -257 0
71 -212 -167 0
71 -212 -185 0
71 -212 -203 0
71 -212 -239 0
71 -212 -257 0
71 -230 -167 0
71 -230 -185 0
71 -230 -203 0
71 -230 -221 0
71 -230 -257 0
71 -248 -167 0
71 -248 -185 0
71 -248 -203 0
71 -248 -221 0
71 -248 -239 0
72 -158 -186 0
72 -158 -204 0
72 -158 -222 0
72 -158 -240 0
72 -158 -258 0
72 -176 -168 0
72 -176 -204 0
72 -176 -222 0
72 -176 -240 0
72 -176 -258 0
72 -194 -168 0
72 -194 -186 0
72 -194 -222 0
72 -194 -240 0
72 -194 -258 0
72 -212 -168 0
72 -212 -186 0
72 -212 -204 0
72 -212 -240 0
72 -212 -258 0
72 -230 -168 0
72 -230 -186 0
72 -230 -204 0
72 -230 -222 0
72 -230 -258 0
72 -248 -168 0
72 -248 -186 0
72 -248 -204 0
72 -248 -222 0
72 -248 -240 0
73 -158 -187 0
73 -158 -205 0
73 -158 -223 0
73 -158 -241 0
73 -158 -259 0
73 -176 -169 0
73 -176 -205 0
73 -176 -223 0
73 -176 -241 0
73 -176 -259 0
73 -194 -169 0
73 -194 -187 0
73 -194 -223 0
73 -194 -241 0
73 -194 -259 0
73 -212 -169 0
73 -212 -187 0
73 -212 -205 0
73 -212 -241 0
73 -212 -259 0
73 -230 -169 0
73 -230 -187 0
73 -230 -205 0
73 -230 -223 0
73 -230 -259 0
73 -248 -169 0
73 -248 -187 0
73 -248 -205 0
73 -248 -223 0
73 -248 -241 0
74 -158 -188 0
74 -158 -206 0
74 -158 -224 0
74 -158 -242 0
74 -158 -260 0
74 -176 -170 0
74 -176 -206 0
74 -176 -224 0
74 -176 -242 0
74 -176 -260 0
74 -194 -170 0
74 -194 -188 0
74 -194 -224 0
74 -194 -242 0
74 -194 -260 0
74 -212 -170 0
74 -212 -188 0
74 -212 -206 0
74 -212 -242 0
74 -212 -260 0
74 -230 -170 0
74 -230 -188 0
74 -230 -206 0
74 -230 -224 0
74 -230 -260 0
74 -248 -170 0
74 -248 -188 0
74 -248 -206 0
74 -248 -224 0
74 -248 -242 0
75 -158 -189 0
75 -158 -207 0
75 -158 -225 0
75 -158 -243 0
75 -158 -261 0
75 -176 -171 0
75 -176 -207 0
75 -176 -225 0
75 -176 -243 0
75 -176 -261 0
75 -194 -171 0
75 -194 -189 0
75 -194 -225 0
75 -194 -243 0
75 -194 -261 0
75 -212 -171 0
75 -212 -189 0
75 -212 -207 0
75 -212 -243 0
75 -212 -261 0
75 -230 -171 0
75 -230 -189 0
75 -230 -207 0
75 -230 -225 0
75 -230 -261 0
75 -248 -171 0
75 -248 -189 0
75 -248 -207 0
75 -248 -225 0
75 -248 -243 0
76 -159 -178 0
76 -159 -196 0
76 -159 -214 0
76 -159 -232 0
76 -159 -250 0
76 -177 -160 0
76 -177 -196 0
76 -177 -214 0
76 -177 -232 0
76 -177 -250 0
76 -195 -160 0
76 -195 -178 0
76 -195 -214 0
76 -195 -232 0
76 -195 -250 0
76 -213 -160 0
76 -213 -178 0
76 -213 -196 0
76 -213 -232 0
76 -213 -250 0
76 -231 -160 0
76 -231 -178 0
76 -231 -196 0
76 -231 -214 0
76 -231 -250 0
76 -249 -160 0
76 -249 -178 0
76 -249 -196 0
76 -249 -214 0
76 -249 -232 0
77 -159 -179 0
77 -159 -197 0
77 -159 -215 0
77 -159 -233 0
77 -159 -251 0
77 -177 -161 0
77 -177 -197 0
77 -177 -215 0
77 -177 -233 0
77 -177 -251 0
77 -195 -161 0
77 -195 -179 0
77 -195 -215 0
77 -195 -233 0
77 -195 -251 0
77 -213 -161 0
77 -213 -179 0
77 -213 -197 0
77 -213 -233 0
77 -213 -251 0
77 -231 -161 0
77 -231 -179 0
77 -231 -197 0
77 -231 -215 0
77 -231 -251 0
77 -249 -161 0
77 -249 -179 0
77 -249 -197 0
77 -249 -215 0
77 -249 -233 0
78 -159 -180 0
78 -159 -198 0
78 -159 -216 0
78 -159 -234 0
78 -159 -252 0
78 -177 -162 0
78 -177 -198 0
78 -177 -216 0
78 -177 -234 0
78 -177 -252 0
78 -195 -162 0
78 -195 -180 0
78 -195 -216 0
78 -195 -234 0
78 -195 -252 0
78 -213 -162 0
78 -213 -180 0
78 -213 -198 0
78 -213 -234 0
78 -213 -252 0
78 -231 -162 0
78 -231 -180 0
78 -231 -198 0
78 -231 -216 0
78 -231 -252 0
78 -249 -162 0
78 -249 -180 0
78 -249 -198 0
78 -249 -216 0
78 -249 -234 0
79 -159 -181 0
79 -159 -199 0
79 -159 -217 0
79 -159 -235 0
79 -159 -253 0
79 -177 -163 0
79 -177 -199 0
79 -177 -217 0
79 -177 -235 0
79 -177 -253 0
79 -195 -163 0
79 -195 -181 0
79 -195 -217 0
79 -195 -235 0
79 -195 -253 0
79 -213 -163 0
79 -213 -181 0
79 -213 -199 0
79 -213 -235 0
79 -213 -253 0
79 -231 -163 0
79 -231 -181 0
79 -231 -199 0
79 -231 -217 0
79 -231 -253 0
79 -249 -163 0
79 -249 -181 0
79 -249 -199 0
79 -249 -217 0
79 -249 -235 0
80 -159 -182 0
80 -159 -200 0
80 -159 -218 0
80 -159 -236 0
80 -159 -254 0
80 -177 -164 0
80 -177 -200 0
80 -177 -218 0
80 -177 -236 0
80 -177 -254 0
80 -195 -164 0
80 -195 -182 0
80 -195 -218 0
80 -195 -236 0
80 -195 -254 0
80 -213 -164 0
80 -213 -182 0
80 -213 -200 0
80 -213 -236 0
80 -213 -254 0
80 -231 -164 0
80 -231 -182 0
80 -231 -200 0
80 -231 -218 0
80 -231 -254 0
80 -249 -164 0
80 -249 -182 0
80 -249 -200 0
80 -249 -218 0
80 -249 -236 0
81 -159 -183 0
81 -159 -201 0
81 -159 -219 0
81 -159 -237 0
81 -159 -255 0
81 -177 -165 0
81 -177 -201 0
81 -177 -219 0
81 -177 -237 0
81 -177 -255 0
81 -195 -165 0
81 -195 -183 0
81 -195 -219 0
81 -195 -237 0
81 -195 -255 0
81 -213 -165 0
81 -213 -183 0
81 -213 -201 0
81 -213 -237 0
81 -213 -255 0
81 -231 -165 0
81 -231 -183 0
81 -231 -201 0
81 -231 -219 0
81 -231 -255 0
81 -249 -165 0
81 -249 -183 0
81 -249 -201 0
81 -249 -219 0
81 -249 -237 0
82 -159 -184 0
82 -159 -202 0
82 -159 -220 0
82 -159 -238 0
82 -159 -256 0
82 -177 -166 0
82 -177 -202 0
82 -177 -220 0
82 -177 -238 0
82 -177 -256 0
82 -195 -166 0
82 -195 -184 0
82 -195 -220 0
82 -195 -238 0
82 -195 -256 0
82 -213 -166 0
82 -213 -184 0
82 -213 -202 0
82 -213 -238 0
82 -213 -256 0
82 -231 -166 0
82 -231 -184 0
82 -231 -202 0
82 -231 -220 0
82 -231 -256 0
82 -249 -166 0
82 -249 -184 0
82 -249 -202 0
82 -249 -220 0
82 -249 -238 0
83 -159 -185 0
83 -159 -203 0
83 -159 -221 0
83 -159 -239 0
83 -159 -257 0
83 -177 -167 0
83 -177 -203 0
83 -177 -221 0
83 -177 -239 0
83 -177 -257 0
83 -195 -167 0
83 -195 -185 0
83 -195 -221 0
83 -195 -239 0
83 -195 -257 0
83 -213 -167 0
83 -213 -185 0
83 -213 -203 0
83 -213 -239 0
83 -213 -257 0
83 -231 -167 0
83 -231 -185 0
83 -231 -203 0
83 -231 -221 0
83 -231 -257 0
83 -249 -167 0
83 -249 -185 0
83 -249 -203 0
83 -249 -221 0
83 -249 -239 0
84 -159 -186 0
84 -159 -204 0
84 -159 -222 0
84 -159 -240 0
84 -159 -258 0
84 -177 -168 0
84 -177 -204 0
84 -177 -222 0
84 -177 -240 0
84 -177 -258 0
84 -195 -168 0
84 -195 -186 0
84 -195 -222 0
84 -195 -240 0
84 -195 -258 0
84 -213 -168 0
84 -213 -186 0
84 -213 -204 0
84 -213 -240 0
84 -213 -258 0
84 -231 -168 0
84 -231 -186 0
84 -231 -204 0
84 -231 -222 0
84 -231 -258 0
84 -249 -168 0
84 -249 -186 0
84 -249 -204 0
84 -249 -222 0
84 -249 -240 0
85 -159 -187 0
85 -159 -205 0
85 -159 -223 0
85 -159 -241 0
85 -159 -259 0
85 -177 -169 0
85 -177 -205 0
85 -177 -223 0
85 -177 -241 0
85 -177 -259 0
85 -195 -169 0
85 -195 -187 0
85 -195 -223 0
85 -195 -241 0
85 -195 -259 0
85 -213 -169 0
85 -213 -187 0
85 -213 -205 0
85 -213 -241 0
85 -213 -259 0
85 -231 -169 0
85 -231 -187 0
85 -231 -205 0
85 -231 -223 0
85 -231 -259 0
85 -249 -169 0
85 -249 -187 0
85 -249 -205 0
85 -249 -223 0
85 -249 -241 0
86 -159 -188 0
86 -159 -206 0
86 -159 -224 0
86 -159 -242 0
86 -159 -260 0
86 -177 -170 0
86 -177 -206 0
86 -177 -224 0
86 -177 -242 0
86 -177 -260 0
86 -195 -170 0
86 -195 -188 0
86 -195 -224 0
86 -195 -242 0
86 -195 -260 0
86 -213 -170 0
86 -213 -188 0
86 -213 -206 0
86 -213 -242 0
86 -213 -260 0
86 -231 -170 0
86 -231 -188 0
86 -231 -206 0
86 -231 -224 0
86 -231 -260 0
86 -249 -170 0
86 -249 -188 0
86 -249 -206 0
86 -249 -224 0
86 -249 -242 0
87 -159 -189 0
87 -159 -207 0
87 -159 -225 0
87 -159 -243 0
87 -159 -261 0
87 -177 -171 0
87 -177 -207 0
87 -177 -225 0
87 -177 -243 0
87 -177 -261 0
87 -195 -171 0
87 -195 -189 0
87 -195 -225 0
87 -195 -243 0
87 -195 -261 0
87 -213 -171 0
87 -213 -189 0
87 -213 -207 0
87 -213 -243 0
87 -213 -261 0
87 -231 -171 0
87 -231 -189 0
87 -231 -207 0
87 -231 -225 0
87 -231 -261 0
87 -249 -171 0
87 -249 -189 0
87 -249 -207 0
87 -249 -225 0
87 -249 -243 0
88 -160 -179 0
88 -160 -197 0
88 -160 -215 0
88 -160 -233 0
88 -160 -251 0
88 -178 -161 0
88 -178 -197 0
88 -178 -215 0
88 -178 -233 0
88 -178 -251 0
88 -196 -161 0
88 -196 -179 0
88 -196 -215 0
88 -196 -233 0
88 -196 -251 0
88 -214 -161 0
88 -214 -179 0
88 -214 -197 0
88 -214 -233 0
88 -214 -251 0
88 -232 -161 0
88 -232 -179 0
88 -232 -197 0
88 -232 -215 0
88 -232 -251 0
88 -250 -161 0
88 -250 -179 0
88 -250 -197 0
88 -250 -215 0
88 -250 -233 0
89 -160 -180 0
89 -160 -198 0
89 -160 -216 0
89 -160 -234 0
89 -160 -252 0
89 -178 -162 0
89 -178 -198 0
89 -178 -216 0
89 -178 -234 0
89 -178 -252 0
89 -196 -162 0
89 -196 -180 0
89 -196 -216 0
89 -196 -234 0
89 -196 -252 0
89 -214 -162 0
89 -214 -180 0
89 -214 -198 0
89 -214 -234 0
89 -214 -252 0
89 -232 -162 0
89 -232 -180 0
89 -232 -198 0
89 -232 -216 0
89 -232 -252 0
89 -250 -162 0
89 -250 -180 0
89 -250 -198 0
89 -250 -216 0
89 -250 -234 0
90 -160 -181 0
90 -160 -199 0
90 -160 -217 0
90 -160 -235 0
90 -160 -253 0
90 -178 -163 0
90 -178 -199 0
90 -178 -217 0
90 -178 -235 0
90 -178 -253 0
90 -196 -163 0
90 -196 -181 0
90 -196 -217 0
90 -196 -235 0
90 -196 -253 0
90 -214 -163 0
90 -214 -181 0
90 -214 -199 0
90 -214 -235 0
90 -214 -253 0
90 -232 -163 0
90 -232 -181 0
90 -232 -199 0
90 -232 -217 0
90 -232 -253 0
90 -250 -163 0
90 -250 -181 0
90 -250 -199 0
90 -250 -217 0
90 -250 -235 0
91 -160 -182 0
91 -160 -200 0
91 -160 -218 0
91 -160 -236 0
91 -160 -254 0
91 -178 -164 0
91 -178 -200 0
91 -178 -218 0
91 -178 -236 0
91 -178 -254 0
91 -196 -164 0
91 -196 -182 0
91 -196 -218 0
91 -196 -236 0
91 -196 -254 0
91 -214 -164 0
91 -214 -182 0
91 -214 -200 0
91 -214 -236 0
91 -214 -254 0
91 -232 -164 0
91 -232 -182 0
91 -232 -200 0
91 -232 -218 0
91 -232 -254 0
91 -250 -164 0
91 -250 -182 0
91 -250 -200 0
91 -250 -218 0
91 -250 -236 0
92 -160 -183 0
92 -160 -201 0
92 -160 -219 0
92 -160 -237 0
92 -160 -255 0
92 -178 -165 0
92 -178 -201 0
92 -178 -219 0
92 -178 -237 0
92 -178 -255 0
92 -196 -165 0
92 -196 -183 0
92 -196 -219 0
92 -196 -237 0
92 -196 -255 0
92 -214 -165 0
92 -214 -183 0
92 -214 -201 0
92 -214 -237 0
92 -214 -255 0
92 -232 -165 0
92 -232 -183 0
92 -232 -201 0
92 -232 -219 0
92 -232 -255 0
92 -250 -165 0
92 -250 -183 0
92 -250 -201 0
92 -250 -219 0
92 -250 -237 0
93 -160 -184 0
93 -160 -202 0
93 -160 -220 0
93 -160 -238 0
93 -160 -256 0
93 -178 -166 0
93 -178 -202 0
93 -178 -220 0
93 -178 -238 0
93 -178 -256 0
93 -196 -166 0
93 -196 -184 0
93 -196 -220 0
93 -196 -238 0
93 -196 -256 0
93 -214 -166 0
93 -214 -184 0
93 -214 -202 0
93 -214 -238 0
93 -214 -256 0
93 -232 -166 0
93 -232 -184 0
93 -232 -202 0
93 -232 -220 0
93 -232 -256 0
93 -250 -166 0
93 -250 -184 0
93 -250 -202 0
93 -250 -220 0
93 -250 -238 0
94 -160 -185 0
94 -160 -203 0
94 -160 -221 0
94 -160 -239 0
94 -160 -257 0
94 -178 -167 0
94 -178 -203 0
94 -178 -221 0
94 -178 -239 0
94 -178 -257 0
94 -196 -167 0
94 -196 -185 0
94 -196 -221 0
94 -196 -239 0
94 -196 -257 0
94 -214 -167 0
94 -214 -185 0
94 -214 -203 0
94 -214 -239 0
94 -214 -257 0
94 -232 -167 0
94 -232 -185 0
94 -232 -203 0
94 -232 -221 0
94 -232 -257 0
94 -250 -167 0
94 -250 -185 0
94 -250 -203 0
94 -250 -221 0
94 -250 -239 0
95 -160 -186 0
95 -160 -204 0
95 -160 -222 0
95 -160 -240 0
95 -160 -258 0
95 -178 -168 0
95 -178 -204 0
95 -178 -222 0
95 -178 -240 0
95 -178 -258 0
95 -196 -168 0
95 -196 -186 0
95 -196 -222 0
95 -196 -240 0
95 -196 -258 0
95 -214 -168 0
95 -214 -186 0
95 -214 -204 0
95 -214 -240 0
95 -214 -258 0
95 -232 -168 0
95 -232 -186 0
95 -232 -204 0
95 -232 -222 0
95 -232 -258 0
95 -250 -168 0
95 -250 -186 0
95 -250 -204 0
95 -250 -222 0
95 -250 -240 0
96 -160 -187 0
96 -160 -205 0
96 -160 -223 0
96 -160 -241 0
96 -160 -259 0
96 -178 -169 0
96 -178 -205 0
96 -178 -223 0
96 -178 -241 0
96 -178 -259 0
96 -196 -169 0
96 -196 -187 0
96 -196 -223 0
96 -196 -241 0
96 -196 -259 0
96 -214 -169 0
96 -214 -187 0
96 -214 -205 0
96 -214 -241 0
96 -214 -259 0
96 -232 -169 0
96 -232 -187 0
96 -232 -205 0
96 -232 -223 0
96 -232 -259 0
96 -250 -169 0
96 -250 -187 0
96 -250 -205 0
96 -250 -223 0
96 -250 -241 0
97 -160 -188 0
97 -160 -206 0
97 -160 -224 0
97 -160 -242 0
97 -160 -260 0
97 -178 -170 0
97 -178 -206 0
97 -178 -224 0
97 -178 -242 0
97 -178 -260 0
97 -196 -170 0
97 -196 -188 0
97 -196 -224 0
97 -196 -242 0
97 -196 -260 0
97 -214 -170 0
97 -214 -188 0
97 -214 -206 0
97 -214 -242 0
97 -214 -260 0
97 -232 -170 0
97 -232 -188 0
97 -232 -206 0
97 -232 -224 0
97 -232 -260 0
97 -250 -170 0
97 -250 -188 0
97 -250 -206 0
97 -250 -224 0
97 -250 -242 0
98 -160 -189 0
98 -160 -207 0
98 -160 -225 0
98 -160 -243 0
98 -160 -261 0
98 -178 -171 0
98 -178 -207 0
98 -178 -225 0
98 -178 -243 0
98 -178 -261 0
98 -196 -171 0
98 -196 -189 0
98 -196 -225 0
98 -196 -243 0
98 -196 -261 0
98 -214 -171 0
98 -214 -189 0
98 -214 -207 0
98 -214 -243 0
98 -214 -261 0
98 -232 -171 0
98 -232 -189 0
98 -232 -207 0
98 -232 -225 0
98 -232 -261 0
98 -250 -171 0
98 -250 -189 0
98 -250 -207 0
98 -250 -225 0
98 -250 -243 0
99 -161 -180 0
99 -161 -198 0
99 -161 -216 0
99 -161 -234 0
99 -161 -252 0
99 -179 -162 0
99 -179 -198 0
99 -179 -216 0
99 -179 -234 0
99 -179 -252 0
99 -197 -162 0
99 -197 -180 0
99 -197 -216 0
99 -197 -234 0
99 -197 -252 0
99 -215 -162 0
99 -215 -180 0
99 -215 -198 0
99 -215 -234 0
99 -215 -252 0
99 -233 -162 0
99 -233 -180 0
99 -233 -198 0
99 -233 -216 0
99 -233 -252 0
99 -251 -162 0
99 -251 -180 0
99 -251 -198 0
99 -251 -216 0
99 -251 -234 0
100 -161 -181 0
100 -161 -199 0
100 -161 -217 0
100 -161 -235 0
100 -161 -253 0
100 -179 -163 0
100 -179 -199 0
100 -179 -217 0
100 -179 -235 0
100 -179 -253 0
100 -197 -163 0
100 -197 -181 0
100 -197 -217 0
100 -197 -235 0
100 -197 -253 0
100 -215 -163 0
100 -215 -181 0
100 -215 -199 0
100 -215 -235 0
100 -215 -253 0
100 -233 -163 0
100 -233 -181 0
100 -233 -199 0
100 -233 -217 0
100 -233 -253 0
100 -251 -163 0
100 -251 -181 0
100 -251 -199 0
100 -251 -217 0
100 -251 -235 0
101 -161 -182 0
101 -161 -200 0
101 -161 -218 0
101 -161 -236 0
101 -161 -254 0
101 -179 -164 0
101 -179 -200 0
101 -179 -218 0
101 -179 -236 0
101 -179 -254 0
101 -197 -164 0
101 -197 -182 0
101 -197 -218 0
101 -197 -236 0
101 -197 -254 0
101 -215 -164 0
101 -215 -182 0
101 -215 -200 0
101 -215 -236 0
101 -215 -254 0
101 -233 -164 0
101 -233 -182 0
101 -233 -200 0
101 -233 -218 0
101 -233 -254 0
101 -251 -164 0
101 -251 -182 0
101 -251 -200 0
101 -251 -218 0
101 -251 -236 0
102 -161 -183 0
102 -161 -201 0
102 -161 -219 0
102 -161 -237 0
102 -161 -255 0
102 -179 -165 0
102 -179 -201 0
102 -179 -219 0
102 -179 -237 0
102 -179 -255 0
102 -197 -165 0
102 -197 -183 0
102 -197 -219 0
102 -197 -237 0
102 -197 -255 0
102 -215 -165 0
102 -215 -183 0
102 -215 -201 0
102 -215 -237 0
102 -215 -255 0
102 -233 -165 0
102 -233 -183 0
102 -233 -201 0
102 -233 -219 0
102 -233 -255 0
102 -251 -165 0
102 -251 -183 0
102 -251 -201 0
102 -251 -219 0
102 -251 -237 0
103 -161 -184 0
103 -161 -202 0
103 -161 -220 0
103 -161 -238 0
103 -161 -256 0
103 -179 -166 0
103 -179 -202 0
103 -179 -220 0
103 -179 -238 0
103 -179 -256 0
103 -197 -166 0
103 -197 -184 0
103 -197 -220 0
103 -197 -238 0
103 -197 -256 0
103 -215 -166 0
103 -215 -184 0
103 -215 -202 0
103 -215 -238 0
103 -215 -256 0
103 -233 -166 0
103 -233 -184 0
103 -233 -202 0
103 -233 -220 0
103 -233 -256 0
103 -251 -166 0
103 -251 -184 0
103 -251 -202 0
103 -251 -220 0
103 -251 -238 0
104 -161 -185 0
104 -161 -203 0
104 -161 -221 0
104 -161 -239 0
104 -161 -257 0
104 -179 -167 0
104 -179 -203 0
104 -179 -221 0
104 -179 -239 0
104 -179 -257 0
104 -197 -167 0
104 -197 -185 0
104 -197 -221 0
104 -197 -239 0
104 -197 -257 0
104 -215 -167 0
104 -215 -185 0
104 -215 -203 0
104 -215 -239 0
104 -215 -257 0
104 -233 -167 0
104 -233 -185 0
104 -233 -203 0
104 -233 -221 0
104 -233 -257 0
104 -251 -167 0
104 -251 -185 0
104 -251 -203 0
104 -251 -221 0
104 -251 -239 0
105 -161 -186 0
105 -161 -204 0
105 -161 -222 0
105 -161 -240 0
105 -161 -258 0
105 -179 -168 0
105 -179 -204 0
105 -179 -222 0
105 -179 -240 0
105 -179 -258 0
105 -197 -168 0
105 -197 -186 0
105 -197 -222 0
105 -197 -240 0
105 -197 -258 0
105 -215 -168 0
105 -215 -186 0
105 -215 -204 0
105 -215 -240 0
105 -215 -258 0
105 -233 -168 0
105 -233 -186 0
105 -233 -204 0
105 -233 -222 0
105 -233 -258 0
105 -251 -168 0
105 -251 -186 0
105 -251 -204 0
105 -251 -222 0
105 -251 -240 0
106 -161 -187 0
106 -161 -205 0
106 -161 -223 0
106 -161 -241 0
106 -161 -259 0
106 -179 -169 0
106 -179 -205 0
106 -179 -223 0
106 -179 -241 0
106 -179 -259 0
106 -197 -169 0
106 -197 -187 0
106 -197 -223 0
106 -197 -241 0
106 -197 -259 0
106 -215 -169 0
106 -215 -187 0
106 -215 -205 0
106 -215 -241 0
106 -215 -259 0
106 -233 -169 0
106 -233 -187 0
106 -233 -205 0
106 -233 -223 0
106 -233 -259 0
106 -251 -169 0
106 -251 -187 0
106 -251 -205 0
106 -251 -223 0
106 -251 -241 0
107 -161 -188 0
107 -161 -206 0
107 -161 -224 0
107 -161 -242 0
107 -161 -260 0
107 -179 -170 0
107 -179 -206 0
107 -179 -224 0
107 -179 -242 0
107 -179 -260 0
107 -197 -170 0
107 -197 -188 0
107 -197 -224 0
107 -197 -242 0
107 -197 -260 0
107 -215 -170 0
107 -215 -188 0
107 -215 -206 0
107 -215 -242 0
107 -215 -260 0
107 -233 -170 0
107 -233 -188 0
107 -233 -206 0
107 -233 -224 0
107 -233 -260 0
107 -251 -170 0
107 -251 -188 0
107 -251 -206 0
107 -251 -224 0
107 -251 -242 0
108 -161 -189 0
108 -161 -207 0
108 -161 -225 0
108 -161 -243 0
108 -161 -261 0
108 -179 -171 0
108 -179 -207 0
108 -179 -225 0
108 -179 -243 0
108 -179 -261 0
108 -197 -171 0
108 -197 -189 0
108 -197 -225 0
108 -197 -243 0
108 -197 -261 0
108 -215 -171 0
108 -215 -189 0
108 -215 -207 0
108 -215 -243 0
108 -215 -261 0
108 -233 -171 0
108 -233 -189 0
108 -233 -207 0
108 -233 -225 0
108 -233 -261 0
108 -251 -171 0
108 -251 -189 0
108 -251 -207 0
108 -251 -225 0
108 -251 -243 0
109 -162 -181 0
109 -162 -199 0
109 -162 -217 0
109 -162 -235 0
109 -162 -253 0
109 -180 -163 0
109 -180 -199 0
109 -180 -217 0
109 -180 -235 0
109 -180 -253 0
109 -198 -163 0
109 -198 -181 0
109 -198 -217 0
109 -198 -235 0
109 -198 -253 0
109 -216 -163 0
109 -216 -181 0
109 -216 -199 0
109 -216 -235 0
109 -216 -253 0
109 -234 -163 0
109 -234 -181 0
109 -234 -199 0
109 -234 -217 0
109 -234 -253 0
109 -252 -163 0
109 -252 -181 0
109 -252 -199 0
109 -252 -217 0
109 -252 -235 0
110 -162 -182 0
110 -162 -200 0
110 -162 -218 0
110 -162 -236 0
110 -162 -254 0
110 -180 -164 0
110 -180 -200 0
110 -180 -218 0
110 -180 -236 0
110 -180 -254 0
110 -198 -164 0
110 -198 -182 0
110 -198 -218 0
110 -198 -236 0
110 -198 -254 0
110 -216 -164 0
110 -216 -182 0
110 -216 -200 0
110 -216 -236 0
110 -216 -254 0
110 -234 -164 0
110 -234 -182 0
110 -234 -200 0
110 -234 -218 0
110 -234 -254 0
110 -252 -164 0
110 -252 -182 0
110 -252 -200 0
110 -252 -218 0
110 -252 -236 0
111 -162 -183 0
111 -162 -201 0
111 -162 -219 0
111 -162 -237 0
111 -162 -255 0
111 -180 -165 0
111 -180 -201 0
111 -180 -219 0
111 -180 -237 0
111 -180 -255 0
111 -198 -165 0
111 -198 -183 0
111 -198 -219 0
111 -198 -237 0
111 -198 -255 0
111 -216 -165 0
111 -216 -183 0
111 -216 -201 0
111 -216 -237 0
111 -216 -255 0
111 -234 -165 0
111 -234 -183 0
111 -234 -201 0
111 -234 -219 0
111 -234 -255 0
111 -252 -165 0
111 -252 -183 0
111 -252 -201 0
111 -252 -219 0
111 -252 -237 0
112 -162 -184 0
112 -162 -202 0
112 -162 -220 0
112 -162 -238 0
112 -162 -256 0
112 -180 -166 0
112 -180 -202 0
112 -180 -220 0
112 -180 -238 0
112 -180 -256 0
112 -198 -166 0
112 -198 -184 0
112 -198 -220 0
112 -198 -238 0
112 -198 -256 0
112 -216 -166 0
112 -216 -184 0
112 -216 -202 0
112 -216 -238 0
112 -216 -256 0
112 -234 -166 0
112 -234 -184 0
112 -234 -202 0
112 -234 -220 0
112 -234 -256 0
112 -252 -166 0
112 -252 -184 0
112 -252 -202 0
112 -252 -220 0
112 -252 -238 0
113 -162 -185 0
113 -162 -203 0
113 -162 -221 0
113 -162 -239 0
113 -162 -257 0
113 -180 -167 0
113 -180 -203 0
113 -180 -221 0
113 -180 -239 0
113 -180 -257 0
113 -198 -167 0
113 -198 -185 0
113 -198 -221 0
113 -198 -239 0
113 -198 -257 0
113 -216 -167 0
113 -216 -185 0
113 -216 -203 0
113 -216 -239 0
113 -216 -257 0
113 -234 -167 0
113 -234 -185 0
113 -234 -203 0
113 -234 -221 0
113 -234 -257 0
113 -252 -167 0
113 -252 -185 0
113 -252 -203 0
113 -252 -221 0
113 -252 -239 0
114 -162 -186 0
114 -162 -204 0
114 -162 -222 0
114 -162 -240 0
114 -162 -258 0
114 -180 -168 0
114 -180 -204 0
114 -180 -222 0
114 -180 -240 0
114 -180 -258 0
114 -198 -168 0
114 -198 -186 0
114 -198 -222 0
114 -198 -240 0
114 -198 -258 0
114 -216 -168 0
114 -216 -186 0
114 -216 -204 0
114 -216 -240 0
114 -216 -258 0
114 -234 -168 0
114 -234 -186 0
114 -234 -204 0
114 -234 -222 0
114 -234 -258 0
114 -252 -168 0
114 -252 -186 0
114 -252 -204 0
114 -252 -222 0
114 -252 -240 0
115 -162 -187 0
115 -162 -205 0
115 -162 -223 0
115 -162 -241 0
115 -162 -259 0
115 -180 -169 0
115 -180 -205 0
115 -180 -223 0
115 -180 -241 0
115 -180 -259 0
115 -198 -169 0
115 -198 -187 0
115 -198 -223 0
115 -198 -241 0
115 -198 -259 0
115 -216 -169 0
115 -216 -187 0
115 -216 -205 0
115 -216 -241 0
115 -216 -259 0
115 -234 -169 0
115 -234 -187 0
115 -234 -205 0
115 -234 -223 0
115 -234 -259 0
115 -252 -169 0
115 -252 -187 0
115 -252 -205 0
115 -252 -223 0
115 -252 -241 0
116 -162 -188 0
116 -162 -206 0
116 -162 -224 0
116 -162 -242 0
116 -162 -260 0
116 -180 -170 0
116 -180 -206 0
116 -180 -224 0
116 -180 -242 0
116 -180 -260 0
116 -198 -170 0
116 -198 -188 0
116 -198 -224 0
116 -198 -242 0
116 -198 -260 0
116 -216 -170 0
116 -216 -188 0
116 -216 -206 0
116 -216 -242 0
116 -216 -260 0
116 -234 -170 0
116 -234 -188 0
116 -234 -206 0
116 -234 -224 0
116 -234 -260 0
116 -252 -170 0
116 -252 -188 0
116 -252 -206 0
116 -252 -224 0
116 -252 -242 0
117 -162 -189 0
117 -162 -207 0
117 -162 -225 0
117 -162 -243 0
117 -162 -261 0
117 -180 -171 0
117 -180 -207 0
117 -180 -225 0
117 -180 -243 0
117 -180 -261 0
117 -198 -171 0
117 -198 -189 0
117 -198 -225 0
117 -198 -243 0
117 -198 -261 0
117 -216 -171 0
117 -216 -189 0
117 -216 -207 0
117 -216 -243 0
117 -216 -261 0
117 -234 -171 0
117 -234 -189 0
117 -234 -207 0
117 -234 -225 0
117 -234 -261 0
117 -252 -171 0
117 -252 -189 0
117 -252 -207 0
117 -252 -225 0
117 -252 -243 0
118 -163 -182 0
118 -163 -200 0
118 -163 -218 0
118 -163 -236 0
118 -163 -254 0
118 -181 -164 0
118 -181 -200 0
118 -181 -218 0
118 -181 -236 0
118 -181 -254 0
118 -199 -164 0
118 -199 -182 0
118 -199 -218 0
118 -199 -236 0
118 -199 -254 0
118 -217 -164 0
118 -217 -182 0
118 -217 -200 0
118 -217 -236 0
118 -217 -254 0
118 -235 -164 0
118 -235 -182 0
118 -235 -200 0
118 -235 -218 0
118 -235 -254 0
118 -253 -164 0
118 -253 -182 0
118 -253 -200 0
118 -253 -218 0
118 -253 -236 0
119 -163 -183 0
119 -163 -201 0
119 -163 -219 0
119 -163 -237 0
119 -163 -255 0
119 -181 -165 0
119 -181 -201 0
119 -181 -219 0
119 -181 -237 0
119 -181 -255 0
119 -199 -165 0
119 -199 -183 0
119 -199 -219 0
119 -199 -237 0
119 -199 -255 0
119 -217 -165 0
119 -217 -183 0
119 -217 -201 0
119 -217 -237 0
119 -217 -255 0
119 -235 -165 0
119 -235 -183 0
119 -235 -201 0
119 -235 -219 0
119 -235 -255 0
119 -253 -165 0
119 -253 -183 0
119 -253 -201 0
119 -253 -219 0
119 -253 -237 0
120 -163 -184 0
120 -163 -202 0
120 -163 -220 0
120 -163 -238 0
120 -163 -256 0
120 -181 -166 0
120 -181 -202 0
120 -181 -220 0
120 -181 -238 0
120 -181 -256 0
120 -199 -166 0
120 -199 -184 0
120 -199 -220 0
120 -199 -238 0
120 -199 -256 0
120 -217 -166 0
120 -217 -184 0
120 -217 -202 0
120 -217 -238 0
120 -217 -256 0
120 -235 -166 0
120 -235 -184 0
120 -235 -202 0
120 -235 -220 0
120 -235 -256 0
120 -253 -166 0
120 -253 -184 0
120 -253 -202 0
120 -253 -220 0
120 -253 -238 0
121 -163 -185 0
121 -163 -203 0
121 -163 -221 0
121 -163 -239 0
121 -163 -257 0
121 -181 -167 0
121 -181 -203 0
121 -181 -221 0
121 -181 -239 0
121 -181 -257 0
121 -199 -167 0
121 -199 -185 0
121 -199 -221 0
121 -199 -239 0
121 -199 -257 0
121 -217 -167 0
121 -217 -185 0
121 -217 -203 0
121 -217 -239 0
121 -217 -257 0
121 -235 -167 0
121 -235 -185 0
121 -235 -203 0
121 -235 -221 0
121 -235 -257 0
121 -253 -167 0
121 -253 -185 0
121 -253 -203 0
121 -253 -221 0
121 -253 -239 0
122 -163 -186 0
122 -163 -204 0
122 -163 -222 0
122 -163 -240 0
122 -163 -258 0
122 -181 -168 0
122 -181 -204 0
122 -181 -222 0
122 -181 -240 0
122 -181 -258 0
122 -199 -168 0
122 -199 -186 0
122 -199 -222 0
122 -199 -240 0
122 -199 -258 0
122 -217 -168 0
122 -217 -186 0
122 -217 -204 0
122 -217 -240 0
122 -217 -258 0
122 -235 -168 0
122 -235 -186 0
122 -235 -204 0
122 -235 -222 0
122 -235 -258 0
122 -253 -168 0
122 -253 -186 0
122 -253 -204 0
122 -253 -222 0
122 -253 -240 0
123 -163 -187 0
123 -163 -205 0
123 -163 -223 0
123 -163 -241 0
123 -163 -259 0
123 -181 -169 0
123 -181 -205 0
123 -181 -223 0
123 -181 -241 0
123 -181 -259 0
123 -199 -169 0
123 -199 -187 0
123 -199 -223 0
123 -199 -241 0
123 -199 -259 0
123 -217 -169 0
123 -217 -187 0
123 -217 -205 0
123 -217 -241 0
123 -217 -259 0
123 -235 -169 0
123 -235 -187 0
123 -235 -205 0
123 -235 -223 0
123 -235 -259 0
123 -253 -169 0
123 -253 -187 0
123 -253 -205 0
123 -253 -223 0
123 -253 -241 0
124 -163 -188 0
124 -163 -206 0
124 -163 -224 0
124 -163 -242 0
124 -163 -260 0
124 -181 -170 0
124 -181 -206 0
124 -181 -224 0
124 -181 -242 0
124 -181 -260 0
124 -199 -170 0
124 -199 -188 0
124 -199 -224 0
124 -199 -242 0
124 -199 -260 0
124 -217 -170 0
124 -217 -188 0
124 -217 -206 0
124 -217 -242 0
124 -217 -260 0
124 -235 -170 0
124 -235 -188 0
124 -235 -206 0
124 -235 -224 0
124 -235 -260 0
124 -253 -170 0
124 -253 -188 0
124 -253 -206 0
124 -253 -224 0
124 -253 -242 0
125 -163 -189 0
125 -163 -207 0
125 -163 -225 0
125 -163 -243 0
125 -163 -261 0
125 -181 -171 0
125 -181 -207 0
125 -181 -225 0
125 -181 -243 0
125 -181 -261 0
125 -199 -171 0
125 -199 -189 0
125 -199 -225 0
125 -199 -243 0
125 -199 -261 0
125 -217 -171 0
125 -217 -189 0
125 -217 -207 0
125 -217 -243 0
125 -217 -261 0
125 -235 -171 0
125 -235 -189 0
125 -235 -207 0
125 -235 -225 0
125 -235 -261 0
125 -253 -171 0
125 -253 -189 0
125 -253 -207 0
125 -253 -225 0
125 -253 -243 0
126 -164 -183 0
126 -164 -201 0
126 -164 -219 0
126 -164 -237 0
126 -164 -255 0
126 -182 -165 0
126 -182 -201 0
126 -182 -219 0
126 -182 -237 0
126 -182 -255 0
126 -200 -165 0
126 -200 -183 0
126 -200 -219 0
126 -200 -237 0
126 -200 -255 0
126 -218 -165 0
126 -218 -183 0
126 -218 -201 0
126 -218 -237 0
126 -218 -255 0
126 -236 -165 0
126 -236 -183 0
126 -236 -201 0
126 -236 -219 0
126 -236 -255 0
126 -254 -165 0
126 -254 -183 0
126 -254 -201 0
126 -254 -219 0
126 -254 -237 0
127 -164 -184 0
127 -164 -202 0
127 -164 -220 0
127 -164 -238 0
127 -164 -256 0
127 -182 -166 0
127 -182 -202 0
127 -182 -220 0
127 -182 -238 0
127 -182 -256 0
127 -200 -166 0
127 -200 -184 0
127 -200 -220 0
127 -200 -238 0
127 -200 -256 0
127 -218 -166 0
127 -218 -184 0
127 -218 -202 0
127 -218 -238 0
127 -218 -256 0
127 -236 -166 0
127 -236 -184 0
127 -236 -202 0
127 -236 -220 0
127 -236 -256 0
127 -254 -166 0
127 -254 -184 0
127 -254 -202 0
127 -254 -220 0
127 -254 -238 0
128 -164 -185 0
128 -164 -203 0
128 -164 -221 0
128 -164 -239 0
128 -164 -257 0
128 -182 -167 0
128 -182 -203 0
128 -182 -221 0
128 -182 -239 0
128 -182 -257 0
128 -200 -167 0
128 -200 -185 0
128 -200 -221 0
128 -200 -239 0
128 -200 -257 0
128 -218 -167 0
128 -218 -185 0
128 -218 -203 0
128 -218 -239 0
128 -218 -257 0
128 -236 -167 0
128 -236 -185 0
128 -236 -203 0
128 -236 -221 0
128 -236 -257 0
128 -254 -167 0
128 -254 -185 0
128 -254 -203 0
128 -254 -221 0
128 -254 -239 0
129 -164 -186 0
129 -164 -204 0
129 -164 -222 0
129 -164 -240 0
129 -164 -258 0
129 -182 -168 0
129 -182 -204 0
129 -182 -222 0
129 -182 -240 0
129 -182 -258 0
129 -200 -168 0
129 -200 -186 0
129 -200 -222 0
129 -200 -240 0
129 -200 -258 0
129 -218 -168 0
129 -218 -186 0
129 -218 -204 0
129 -218 -240 0
129 -218 -258 0
129 -236 -168 0
129 -236 -186 0
129 -236 -204 0
129 -236 -222 0
129 -236 -258 0
129 -254 -168 0
129 -254 -186 0
129 -254 -204 0
129 -254 -222 0
129 -254 -240 0
130 -164 -187 0
130 -164 -205 0
130 -164 -223 0
130 -164 -241 0
130 -164 -259 0
130 -182 -169 0
130 -182 -205 0
130 -182 -223 0
130 -182 -241 0
130 -182 -259 0
130 -200 -169 0
130 -200 -187 0
130 -200 -223 0
130 -200 -241 0
130 -200 -259 0
130 -218 -169 0
130 -218 -187 0
130 -218 -205 0
130 -218 -241 0
130 -218 -259 0
130 -236 -169 0
130 -236 -187 0
130 -236 -205 0
130 -236 -223 0
130 -236 -259 0
130 -254 -169 0
130 -254 -187 0
130 -254 -205 0
130 -254 -223 0
130 -254 -241 0
131 -164 -188 0
131 -164 -206 0
131 -164 -224 0
131 -164 -242 0
131 -164 -260 0
131 -182 -170 0
131 -182 -206 0
131 -182 -224 0
131 -182 -242 0
131 -182 -260 0
131 -200 -170 0
131 -200 -188 0
131 -200 -224 0
131 -200 -242 0
131 -200 -260 0
131 -218 -170 0
131 -218 -188 0
131 -218 -206 0
131 -218 -242 0
131 -218 -260 0
131 -236 -170 0
131 -236 -188 0
131 -236 -206 0
131 -236 -224 0
131 -236 -260 0
131 -254 -170 0
131 -254 -188 0
131 -254 -206 0
131 -254 -224 0
131 -254 -242 0
132 -164 -189 0
132 -164 -207 0
132 -164 -225 0
132 -164 -243 0
132 -164 -261 0
132 -182 -171 0
132 -182 -207 0
132 -182 -225 0
132 -182 -243 0
132 -182 -261 0
132 -200 -171 0
132 -200 -189 0
132 -200 -225 0
132 -200 -243 0
132 -200 -261 0
132 -218 -171 0
132 -218 -189 0
132 -218 -207 0
132 -218 -243 0
132 -218 -261 0
132 -236 -171 0
132 -236 -189 0
132 -236 -207 0
132 -236 -225 0
132 -236 -261 0
132 -254 -171 0
132 -254 -189 0
132 -254 -207 0
132 -254 -225 0
132 -254 -243 0
133 -165 -184 0
133 -165 -202 0
133 -165 -220 0
133 -165 -238 0
133 -165 -256 0
133 -183 -166 0
133 -183 -202 0
133 -183 -220 0
133 -183 -238 0
133 -183 -256 0
133 -201 -166 0
133 -201 -184 0
133 -201 -220 0
133 -201 -238 0
133 -201 -256 0
133 -219 -166 0
133 -219 -184 0
133 -219 -202 0
133 -219 -238 0
133 -219 -256 0
133 -237 -166 0
133 -237 -184 0
133 -237 -202 0
133 -237 -220 0
133 -237 -256 0
133 -255 -166 0
133 -255 -184 0
133 -255 -202 0
133 -255 -220 0
133 -255 -238 0
134 -165 -185 0
134 -165 -203 0
134 -165 -221 0
134 -165 -239 0
134 -165 -257 0
134 -183 -167 0
134 -183 -203 0
134 -183 -221 0
134 -183 -239 0
134 -183 -257 0
134 -201 -167 0
134 -201 -185 0
134 -201 -221 0
134 -201 -239 0
134 -201 -257 0
134 -219 -167 0
134 -219 -185 0
134 -219 -203 0
134 -219 -239 0
134 -219 -257 0
134 -237 -167 0
134 -237 -185 0
134 -237 -203 0
134 -237 -221 0
134 -237 -257 0
134 -255 -167 0
134 -255 -185 0
134 -255 -203 0
134 -255 -221 0
134 -255 -239 0
135 -165 -186 0
135 -165 -204 0
135 -165 -222 0
135 -165 -240 0
135 -165 -258 0
135 -183 -168 0
135 -183 -204 0
135 -183 -222 0
135 -183 -240 0
135 -183 -258 0
135 -201 -168 0
135 -201 -186 0
135 -201 -222 0
135 -201 -240 0
135 -201 -258 0
135 -219 -168 0
135 -219 -186 0
135 -219 -204 0
135 -219 -240 0
135 -219 -258 0
135 -237 -168 0
135 -237 -186 0
135 -237 -204 0
135 -237 -222 0
135 -237 -258 0
135 -255 -168 0
135 -255 -186 0
135 -255 -204 0
135 -255 -222 0
135 -255 -240 0
136 -165 -187 0
136 -165 -205 0
136 -165 -223 0
136 -165 -241 0
136 -165 -259 0
136 -183 -169 0
136 -183 -205 0
136 -183 -223 0
136 -183 -241 0
136 -183 -259 0
136 -201 -169 0
136 -201 -187 0
136 -201 -223 0
136 -201 -241 0
136 -201 -259 0
136 -219 -169 0
136 -219 -187 0
136 -219 -205 0
136 -219 -241 0
136 -219 -259 0
136 -237 -169 0
136 -237 -187 0
136 -237 -205 0
136 -237 -223 0
136 -237 -259 0
136 -255 -169 0
136 -255 -187 0
136 -255 -205 0
136 -255 -223 0
136 -255 -241 0
137 -165 -188 0
137 -165 -206 0
137 -165 -224 0
137 -165 -242 0
137 -165 -260 0
137 -183 -170 0
137 -183 -206 0
137 -183 -224 0
137 -183 -242 0
137 -183 -260 0
137 -201 -170 0
137 -201 -188 0
137 -201 -224 0
137 -201 -242 0
137 -201 -260 0
137 -219 -170 0
137 -219 -188 0
137 -219 -206 0
137 -219 -242 0
137 -219 -260 0
137 -237 -170 0
137 -237 -188 0
137 -237 -206 0
137 -237 -224 0
137 -237 -260 0
137 -255 -170 0
137 -255 -188 0
137 -255 -206 0
137 -255 -224 0
137 -255 -242 0
138 -165 -189 0
138 -165 -207 0
138 -165 -225 0
138 -165 -243 0
138 -165 -261 0
138 -183 -171 0
138 -183 -207 0
138 -183 -225 0
138 -183 -243 0
138 -183 -261 0
138 -201 -171 0
138 -201 -189 0
138 -201 -225 0
138 -201 -243 0
138 -201 -261 0
138 -219 -171 0
138 -219 -189 0
138 -219 -207 0
138 -219 -243 0
138 -219 -261 0
138 -237 -171 0
138 -237 -189 0
138 -237 -207 0
138 -237 -225 0
138 -237 -261 0
138 -255 -171 0
138 -255 -189 0
138 -255 -207 0
138 -255 -225 0
138 -255 -243 0
139 -166 -185 0
139 -166 -203 0
139 -166 -221 0
139 -166 -239 0
139 -166 -257 0
139 -184 -167 0
139 -184 -203 0
139 -184 -221 0
139 -184 -239 0
139 -184 -257 0
139 -202 -167 0
139 -202 -185 0
139 -202 -221 0
139 -202 -239 0
139 -202 -257 0
139 -220 -167 0
139 -220 -185 0
139 -220 -203 0
139 -220 -239 0
139 -220 -257 0
139 -238 -167 0
139 -238 -185 0
139 -238 -203 0
139 -238 -221 0
139 -238 -257 0
139 -256 -167 0
139 -256 -185 0
139 -256 -203 0
139 -256 -221 0
139 -256 -239 0
140 -166 -186 0
140 -166 -204 0
140 -166 -222 0
140 -166 -240 0
140 -166 -258 0
140 -184 -168 0
140 -184 -204 0
140 -184 -222 0
140 -184 -240 0
140 -184 -258 0
140 -202 -168 0
140 -202 -186 0
140 -202 -222 0
140 -202 -240 0
140 -202 -258 0
140 -220 -168 0
140 -220 -186 0
140 -220 -204 0
140 -220 -240 0
140 -220 -258 0
140 -238 -168 0
140 -238 -186 0
140 -238 -204 0
140 -238 -222 0
140 -238 -258 0
140 -256 -168 0
140 -256 -186 0
140 -256 -204 0
140 -256 -222 0
140 -256 -240 0
141 -166 -187 0
141 -166 -205 0
141 -166 -223 0
141 -166 -241 0
141 -166 -259 0
141 -184 -169 0
141 -184 -205 0
141 -184 -223 0
141 -184 -241 0
141 -184 -259 0
141 -202 -169 0
141 -202 -187 0
141 -202 -223 0
141 -202 -241 0
141 -202 -259 0
141 -220 -169 0
141 -220 -187 0
141 -220 -205 0
141 -220 -241 0
141 -220 -259 0
141 -238 -169 0
141 -238 -187 0
141 -238 -205 0
141 -238 -223 0
141 -238 -259 0
141 -256 -169 0
141 -256 -187 0
141 -256 -205 0
141 -256 -223 0
141 -256 -241 0
142 -166 -188 0
142 -166 -206 0
142 -166 -224 0
142 -166 -242 0
142 -166 -260 0
142 -184 -170 0
142 -184 -206 0
142 -184 -224 0
142 -184 -242 0
142 -184 -260 0
142 -202 -170 0
142 -202 -188 0
142 -202 -224 0
142 -202 -242 0
142 -202 -260 0
142 -220 -170 0
142 -220 -188 0
142 -220 -206 0
142 -220 -242 0
142 -220 -260 0
142 -238 -170 0
142 -238 -188 0
142 -238 -206 0
142 -238 -224 0
142 -238 -260 0
142 -256 -170 0
142 -256 -188 0
142 -256 -206 0
142 -256 -224 0
142 -256 -242 0
143 -166 -189 0
143 -166 -207 0
143 -166 -225 0
143 -166 -243 0
143 -166 -261 0
143 -184 -171 0
143 -184 -207 0
143 -184 -225 0
143 -184 -243 0
143 -184 -261 0
143 -202 -171 0
143 -202 -189 0
143 -202 -225 0
143 -202 -243 0
143 -202 -261 0
143 -220 -171 0
143 -220 -189 0
143 -220 -207 0
143 -220 -243 0
143 -220 -261 0
143 -238 -171 0
143 -238 -189 0
143 -238 -207 0
143 -238 -225 0
143 -238 -261 0
143 -256 -171 0
143 -256 -189 0
143 -256 -207 0
143 -256 -225 0
143 -256 -243 0
144 -167 -186 0
144 -167 -204 0
144 -167 -222 0
144 -167 -240 0
144 -167 -258 0
144 -185 -168 0
144 -185 -204 0
144 -185 -222 0
144 -185 -240 0
144 -185 -258 0
144 -203 -168 0
144 -203 -186 0
144 -203 -222 0
144 -203 -240 0
144 -203 -258 0
144 -221 -168 0
144 -221 -186 0
144 -221 -204 0
144 -221 -240 0
144 -221 -258 0
144 -239 -168 0
144 -239 -186 0
144 -239 -204 0
144 -239 -222 0
144 -239 -258 0
144 -257 -168 0
144 -257 -186 0
144 -257 -204 0
144 -257 -222 0
144 -257 -240 0
145 -167 -187 0
145 -167 -205 0
145 -167 -223 0
145 -167 -241 0
145 -167 -259 0
145 -185 -169 0
145 -185 -205 0
145 -185 -223 0
145 -185 -241 0
145 -185 -259 0
145 -203 -169 0
145 -203 -187 0
145 -203 -223 0
145 -203 -241 0
145 -203 -259 0
145 -221 -169 0
145 -221 -187 0
145 -221 -205 0
145 -221 -241 0
145 -221 -259 0
145 -239 -169 0
145 -239 -187 0
145 -239 -205 0
145 -239 -223 0
145 -239 -259 0
145 -257 -169 0
145 -257 -187 0
145 -257 -205 0
145 -257 -223 0
145 -257 -241 0
146 -167 -188 0
146 -167 -206 0
146 -167 -224 0
146 -167 -242 0
146 -167 -260 0
146 -185 -170 0
146 -185 -206 0
146 -185 -224 0
146 -185 -242 0
146 -185 -260 0
146 -203 -170 0
146 -203 -188 0
146 -203 -224 0
146 -203 -242 0
146 -203 -260 0
146 -221 -170 0
146 -221 -188 0
146 -221 -206 0
146 -221 -242 0
146 -221 -260 0
146 -239 -170 0
146 -239 -188 0
146 -239 -206 0
146 -239 -224 0
146 -239 -260 0
146 -257 -170 0
146 -257 -188 0
146 -257 -206 0
146 -257 -224 0
146 -257 -242 0
147 -167 -189 0
147 -167 -207 0
147 -167 -225 0
147 -167 -243 0
147 -167 -261 0
147 -185 -171 0
147 -185 -207 0
147 -185 -225 0
147 -185 -243 0
147 -185 -261 0
147 -203 -171 0
147 -203 -189 0
147 -203 -225 0
147 -203 -243 0
147 -203 -261 0
147 -221 -171 0
147 -221 -189 0
147 -221 -207 0
147 -221 -243 0
147 -221 -261 0
147 -239 -171 0
147 -239 -189 0
147 -239 -207 0
147 -239 -225 0
147 -239 -261 0
147 -257 -171 0
147 -257 -189 0
147 -257 -207 0
147 -257 -225 0
147 -257 -243 0
148 -168 -187 0
148 -168 -205 0
148 -168 -223 0
148 -168 -241 0
148 -168 -259 0
148 -186 -169 0
148 -186 -205 0
148 -186 -223 0
148 -186 -241 0
148 -186 -259 0
148 -204 -169 0
148 -204 -187 0
148 -204 -223 0
148 -204 -241 0
148 -204 -259 0
148 -222 -169 0
148 -222 -187 0
148 -222 -205 0
148 -222 -241 0
148 -222 -259 0
148 -240 -169 0
148 -240 -187 0
148 -240 -205 0
148 -240 -223 0
148 -240 -259 0
148 -258 -169 0
148 -258 -187 0
148 -258 -205 0
148 -258 -223 0
148 -258 -241 0
149 -168 -188 0
149 -168 -206 0
149 -168 -224 0
149 -168 -242 0
149 -168 -260 0
149 -186 -170 0
149 -186 -206 0
149 -186 -224 0
149 -186 -242 0
149 -186 -260 0
149 -204 -170 0
149 -204 -188 0
149 -204 -224 0
149 -204 -242 0
149 -204 -260 0
149 -222 -170 0
149 -222 -188 0
149 -222 -206 0
149 -222 -242 0
149 -222 -260 0
149 -240 -170 0
149 -240 -188 0
149 -240 -206 0
149 -240 -224 0
149 -240 -260 0
149 -258 -170 0
149 -258 -188 0
149 -258 -206 0
149 -258 -224 0
149 -258 -242 0
150 -168 -189 0
150 -168 -207 0
150 -168 -225 0
150 -168 -243 0
150 -168 -261 0
150 -186 -171 0
150 -186 -207 0
150 -186 -225 0
150 -186 -243 0
150 -186 -261 0
150 -204 -171 0
150 -204 -189 0
150 -204 -225 0
150 -204 -243 0
150 -204 -261 0
150 -222 -171 0
150 -222 -189 0
150 -222 -207 0
150 -222 -243 0
150 -222 -261 0
150 -240 -171 0
150 -240 -189 0
150 -240 -207 0
150 -240 -225 0
150 -240 -261 0
150 -258 -171 0
150 -258 -189 0
150 -258 -207 0
150 -258 -225 0
150 -258 -243 0
151 -169 -188 0
151 -169 -206 0
151 -169 -224 0
151 -169 -242 0
151 -169 -260 0
151 -187 -170 0
151 -187 -206 0
151 -187 -224 0
151 -187 -242 0
151 -187 -260 0
151 -205 -170 0
151 -205 -188 0
151 -205 -224 0
151 -205 -242 0
151 -205 -260 0
151 -223 -170 0
151 -223 -188 0
151 -223 -206 0
151 -223 -242 0
151 -223 -260 0
151 -241 -170 0
151 -241 -188 0
151 -241 -206 0
151 -241 -224 0
151 -241 -260 0
151 -259 -170 0
151 -259 -188 0
151 -259 -206 0
151 -259 -224 0
151 -259 -242 0
152 -169 -189 0
152 -169 -207 0
152 -169 -225 0
152 -169 -243 0
152 -169 -261 0
152 -187 -171 0
152 -187 -207 0
152 -187 -225 0
152 -187 -243 0
152 -187 -261 0
152 -205 -171 0
152 -205 -189 0
152 -205 -225 0
152 -205 -243 0
152 -205 -261 0
152 -223 -171 0
152 -223 -189 0
152 -223 -207 0
152 -223 -243 0
152 -223 -261 0
152 -241 -171 0
152 -241 -189 0
152 -241 -207 0
152 -241 -225 0
152 -241 -261 0
152 -259 -171 0
152 -259 -189 0
152 -259 -207 0
152 -259 -225 0
152 -259 -243 0
153 -170 -189 0
153 -170 -207 0
153 -170 -225 0
153 -170 -243 0
153 -170 -261 0
153 -188 -171 0
153 -188 -207 0
153 -188 -225 0
153 -188 -243 0
153 -188 -261 0
153 -206 -171 0
153 -206 -189 0
153 -206 -225 0
153 -206 -243 0
153 -206 -261 0
153 -224 -171 0
153 -224 -189 0
153 -224 -207 0
153 -224 -243 0
153 -224 -261 0
153 -242 -171 0
153 -242 -189 0
153 -242 -207 0
153 -242 -225 0
153 -242 -261 0
153 -260 -171 0
153 -260 -189 0
153 -260 -207 0
153 -260 -225 0
153 -260 -243 0
-262 -263 0
-262 -264 0
-262 -265 0
-262 -266 0
-263 -264 0
-263 -265 0
-263 -266 0
-264 -265 0
-264 -266 0
-265 -266 0
262 263 264 265 266 0
-267 -268 0
-267 -269 0
-267 -270 0
-267 -271 0
-268 -269 0
-268 -270 0
-268 -271 0
-269 -270 0
-269 -271 0
-270 -271 0
267 268 269 270 271 0
-272 -273 0
-272 -274 0
-272 -275 0
-272 -276 0
-273 -274 0
-273 -275 0
-273 -276 0
-274 -275 0
-274 -276 0
-275 -276 0
272 273 274 275 276 0
-277 -278 0
-277 -279 0
-277 -280 0
-277 -281 0
-278 -279 0
-278 -280 0
-278 -281 0
-279 -280 0
-279 -281 0
-280 -281 0
277 278 279 280 281 0
-282 -283 0
-282 -284 0
-282 -285 0
-282 -286 0
-283 -284 0
-283 -285 0
-283 -286 0
-284 -285 0
-284 -286 0
-285 -286 0
282 283 284 285 286 0
-287 -288 0
-287 -289 0
-287 -290 0
-287 -291 0
-288 -289 0
-288 -290 0
-288 -291 0
-289 -290 0
-289 -291 0
-290 -291 0
287 288 289 290 291 0
-292 -293 0
-292 -294 0
-292 -295 0
-292 -296 0
-293 -294 0
-293 -295 0
-293 -296 0
-294 -295 0
-294 -296 0
-295 -296 0
292 293 294 295 296 0
-297 -298 0
-297 -299 0
-297 -300 0
-297 -301 0
-298 -299 0
-298 -300 0
-298 -301 0
-299 -300 0
-299 -301 0
-300 -301 0
297 298 299 300 301 0
-302 -303 0
-302 -304 0
-302 -305 0
-302 -306 0
-303 -304 0
-303 -305 0
-303 -306 0
-304 -305 0
-304 -306 0
-305 -306 0
302 303 304 305 306 0
-307 -308 0
-307 -309 0
-307 -310 0
-307 -311 0
-308 -309 0
-308 -310 0
-308 -311 0
-309 -310 0
-309 -311 0
-310 -311 0
307 308 309 310 311 0
-312 -313 0
-312 -314 0
-312 -315 0
-312 -316 0
-313 -314 0
-313 -315 0
-313 -316 0
-314 -315 0
-314 -316 0
-315 -316 0
312 313 314 315 316 0
-317 -318 0
-317 -319 0
-317 -320 0
-317 -321 0
-318 -319 0
-318 -320 0
-318 -321 0
-319 -320 0
-319 -321 0
-320 -321 0
317 318 319 320 321 0
-322 -323 0
-322 -324 0
-322 -325 0
-322 -326 0
-323 -324 0
-323 -325 0
-323 -326 0
-324 -325 0
-324 -326 0
-325 -326 0
322 323 324 325 326 0
-327 -328 0
-327 -329 0
-327 -330 0
-327 -331 0
-328 -329 0
-328 -330 0
-328 -331 0
-329 -330 0
-329 -331 0
-330 -331 0
327 328 329 330 331 0
-332 -333 0
-332 -334 0
-332 -335 0
-332 -336 0
-333 -334 0
-333 -335 0
-333 -336 0
-334 -335 0
-334 -336 0
-335 -336 0
332 333 334 335 336 0
-337 -338 0
-337 -339 0
-337 -340 0
-337 -341 0
-338 -339 0
-338 -340 0
-338 -341 0
-339 -340 0
-339 -341 0
-340 -341 0
337 338 339 340 341 0
-342 -343 0
-342 -344 0
-342 -345 0
-342 -346 0
-343 -344 0
-343 -345 0
-343 -346 0
-344 -345 0
-344 -346 0
-345 -346 0
342 343 344 345 346 0
-347 -348 0
-347 -349 0
-347 -350 0
-347 -351 0
-348 -349 0
-348 -350 0
-348 -351 0
-349 -350 0
-349 -351 0
-350 -351 0
347 348 349 350 351 0
-1 -262 -267 0
-1 -263 -268 0
-1 -264 -269 0
-1 -265 -270 0
-1 -266 -271 0
-2 -262 -272 0
-2 -263 -273 0
-2 -264 -274 0
-2 -265 -275 0
-2 -266 -276 0
-3 -262 -277 0
-3 -263 -278 0
-3 -264 -279 0
-3 -265 -280 0
-3 -266 -281 0
-4 -262 -282 0
-4 -263 -283 0
-4 -264 -284 0
-4 -265 -285 0
-4 -266 -286 0
-5 -262 -287 0
-5 -263 -288 0
-5 -264 -289 0
-5 -265 -290 0
-5 -266 -291 0
-6 -262 -292 0
-6 -263 -293 0
-6 -264 -294 0
-6 -265 -295 0
-6 -266 -296 0
-7 -262 -297 0
-7 -263 -298 0
-7 -264 -299 0
-7 -265 -300 0
-7 -266 -301 0
-8 -262 -302 0
-8 -263 -303 0
-8 -264 -304 0
-8 -265 -305 0
-8 -266 -306 0
-9 -262 -307 0
-9 -263 -308 0
-9 -264 -309 0
-9 -265 -310 0
-9 -266 -311 0
-10 -262 -312 0
-10 -263 -313 0
-10 -264 -314 0
-10 -265 -315 0
-10 -266 -316 0
-11 -262 -317 0
-11 -263 -318 0
-11 -264 -319 0
-11 -265 -320 0
-11 -266 -321 0
-12 -262 -322 0
-12 -263 -323 0
-12 -264 -324 0
-12 -265 -325 0
-12 -266 -326 0
-13 -262 -327 0
-13 -263 -328 0
-13 -264 -329 0
-13 -265 -330 0
-13 -266 -331 0
-14 -262 -332 0
-14 -263 -333 0
-14 -264 -334 0
-14 -265 -335 0
-14 -266 -336 0
-15 -262 -337 0
-15 -263 -338 0
-15 -264 -339 0
-15 -265 -340 0
-15 -266 -341 0
-16 -262 -342 0
-16 -263 -343 0
-16 -264 -344 0
-16 -265 -345 0
-16 -266 -346 0
-17 -262 -347 0
-17 -263 -348 0
-17 -264 -349 0
-17 -265 -350 0
-17 -266 -351 0
-18 -267 -272 0
-18 -268 -273 0
-18 -269 -274 0
-18 -270 -275 0
-18 -271 -276 0
-19 -267 -277 0
-19 -268 -278 0
-19 -269 -279 0
-19 -270 -280 0
-19 -271 -281 0
-20 -267 -282 0
-20 -268 -283 0
-20 -269 -284 0
-20 -270 -285 0
-20 -271 -286 0
-21 -267 -287 0
-21 -268 -288 0
-21 -269 -289 0
-21 -270 -290 0
-21 -271 -291 0
-22 -267 -292 0
-22 -268 -293 0
-22 -269 -294 0
-22 -270 -295 0
-22 -271 -296 0
-23 -267 -297 0
-23 -268 -298 0
-23 -269 -299 0
-23 -270 -300 0
-23 -271 -301 0
-24 -267 -302 0
-24 -268 -303 0
-24 -269 -304 0
-24 -270 -305 0
-24 -271 -306 0
-25 -267 -307 0
-25 -268 -308 0
-25 -269 -309 0
-25 -270 -310 0
-25 -271 -311 0
-26 -267 -312 0
-26 -268 -313 0
-26 -269 -314 0
-26 -270 -315 0
-26 -271 -316 0
-27 -267 -317 0
-27 -268 -318 0
-27 -269 -319 0
-27 -270 -320 0
-27 -271 -321 0
-28 -267 -322 0
-28 -268 -323 0
-28 -269 -324 0
-28 -270 -325 0
-28 -271 -326 0
-29 -267 -327 0
-29 -268 -328 0
-29 -269 -329 0
-29 -270 -330 0
-29 -271 -331 0
-30 -267 -332 0
-30 -268 -333 0
-30 -269 -334 0
-30 -270 -335 0
-30 -271 -336 0
-31 -267 -337 0
-31 -268 -338 0
-31 -269 -339 0
-31 -270 -340 0
-31 -271 -341 0
-32 -267 -342 0
-32 -268 -343 0
-32 -269 -344 0
-32 -270 -345 0
-32 -271 -346 0
-33 -267 -347 0
-33 -268 -348 0
-33 -269 -349 0
-33 -270 -350 0
-33 -271 -351 0
-34 -272 -277 0
-34 -273 -278 0
-34 -274 -279 0
-34 -275 -280 0
-34 -276 -281 0
-35 -272 -282 0
-35 -273 -283 0
-35 -274 -284 0
-35 -275 -285 0
-35 -276 -286 0
-36 -272 -287 0
-36 -273 -288 0
-36 -274 -289 0
-36 -275 -290 0
-36 -276 -291 0
-37 -272 -292 0
-37 -273 -293 0
-37 -274 -294 0
-37 -275 -295 0
-37 -276 -296 0
-38 -272 -297 0
-38 -273 -298 0
-38 -274 -299 0
-38 -275 -300 0
-38 -276 -301 0
-39 -272 -302 0
-39 -273 -303 0
-39 -274 -304 0
-39 -275 -305 0
-39 -276 -306 0
-40 -272 -307 0
-40 -273 -308 0
-40 -274 -309 0
-40 -275 -310 0
-40 -276 -311 0
-41 -272 -312 0
-41 -273 -313 0
-41 -274 -314 0
-41 -275 -315 0
-41 -276 -316 0
-42 -272 -317 0
-42 -273 -318 0
-42 -274 -319 0
-42 -275 -320 0
-42 -276 -321 0
-43 -272 -322 0
-43 -273 -323 0
-43 -274 -324 0
-43 -275 -325 0
-43 -276 -326 0
-44 -272 -327 0
-44 -273 -328 0
-44 -274 -329 0
-44 -275 -330 0
-44 -276 -331 0
-45 -272 -332 0
-45 -273 -333 0
-45 -274 -334 0
-45 -275 -335 0
-45 -276 -336 0
-46 -272 -337 0
-46 -273 -338 0
-46 -274 -339 0
-46 -275 -340 0
-46 -276 -341 0
-47 -272 -342 0
-47 -273 -343 0
-47 -274 -344 0
-47 -275 -345 0
-47 -276 -346 0
-48 -272 -347 0
-48 -273 -348 0
-48 -274 -349 0
-48 -275 -350 0
-48 -276 -351 0
-49 -277 -282 0
-49 -278 -283 0
-49 -279 -284 0
-49 -280 -285 0
-49 -281 -286 0
-50 -277 -287 0
-50 -278 -288 0
-50 -279 -289 0
-50 -280 -290 0
-50 -281 -291 0
-51 -277 -292 0
-51 -278 -293 0
-51 -279 -294 0
-51 -280 -295 0
-51 -281 -296 0
-52 -277 -297 0
-52 -278 -298 0
-52 -279 -299 0
-52 -280 -300 0
-52 -281 -301 0
-53 -277 -302 0
-53 -278 -303 0
-53 -279 -304 0
-53 -280 -305 0
-53 -281 -306 0
-54 -277 -307 0
-54 -278 -308 0
-54 -279 -309 0
-54 -280 -310 0
-54 -281 -311 0
-55 -277 -312 0
-55 -278 -313 0
-55 -279 -314 0
-55 -280 -315 0
-55 -281 -316 0
-56 -277 -317 0
-56 -278 -318 0
-56 -279 -319 0
-56 -280 -320 0
-56 -281 -321 0
-57 -277 -322 0
-57 -278 -323 0
-57 -279 -324 0
-57 -280 -325 0
-57 -281 -326 0
-58 -277 -327 0
-58 -278 -328 0
-58 -279 -329 0
-58 -280 -330 0
-58 -281 -331 0
-59 -277 -332 0
-59 -278 -333 0
-59 -279 -334 0
-59 -280 -335 0
-59 -281 -336 0
-60 -277 -337 0
-60 -278 -338 0
-60 -279 -339 0
-60 -280 -340 0
-60 -281 -341 0
-61 -277 -342 0
-61 -278 -343 0
-61 -279 -344 0
-61 -280 -345 0
-61 -281 -346 0
-62 -277 -347 0
-62 -278 -348 0
-62 -279 -349 0
-62 -280 -350 0
-62 -281 -351 0
-63 -282 -287 0
-63 -283 -288 0
-63 -284 -289 0
-63 -285 -290 0
-63 -286 -291 0
-64 -282 -292 0
-64 -283 -293 0
-64 -284 -294 0
-64 -285 -295 0
-64 -286 -296 0
-65 -282 -297 0
-65 -283 -298 0
-65 -284 -299 0
-65 -285 -300 0
-65 -286 -301 0
-66 -282 -302 0
-66 -283 -303 0
-66 -284 -304 0
-66 -285 -305 0
-66 -286 -306 0
-67 -282 -307 0
-67 -283 -308 0
-67 -284 -309 0
-67 -285 -310 0
-67 -286 -311 0
-68 -282 -312 0
-68 -283 -313 0
-68 -284 -314 0
-68 -285 -315 0
-68 -286 -316 0
-69 -282 -317 0
-69 -283 -318 0
-69 -284 -319 0
-69 -285 -320 0
-69 -286 -321 0
-70 -282 -322 0
-70 -283 -323 0
-70 -284 -324 0
-70 -285 -325 0
-70 -286 -326 0
-71 -282 -327 0
-71 -283 -328 0
-71 -284 -329 0
-71 -285 -330 0
-71 -286 -331 0
-72 -282 -332 0
-72 -283 -333 0
-72 -284 -334 0
-72 -285 -335 0
-72 -286 -336 0
-73 -282 -337 0
-73 -283 -338 0
-73 -284 -339 0
-73 -285 -340 0
-73 -286 -341 0
-74 -282 -342 0
-74 -283 -343 0
-74 -284 -344 0
-74 -285 -345 0
-74 -286 -346 0
-75 -282 -347 0
-75 -283 -348 0
-75 -284 -349 0
-75 -285 -350 0
-75 -286 -351 0
-76 -287 -292 0
-76 -288 -293 0
-76 -289 -294 0
-76 -290 -295 0
-76 -291 -296 0
-77 -287 -297 0
-77 -288 -298 0
-77 -289 -299 0
-77 -290 -300 0
-77 -291 -301 0
-78 -287 -302 0
-78 -288 -303 0
-78 -289 -304 0
-78 -290 -305 0
-78 -291 -306 0
-79 -287 -307 0
-79 -288 -308 0
-79 -289 -309 0
-79 -290 -310 0
-79 -291 -311 0
-80 -287 -312 0
-80 -288 -313 0
-80 -289 -314 0
-80 -290 -315 0
-80 -291 -316 0
-81 -287 -317 0
-81 -288 -318 0
-81 -289 -319 0
-81 -290 -320 0
-81 -291 -321 0
-82 -287 -322 0
-82 -288 -323 0
-82 -289 -324 0
-82 -290 -325 0
-82 -291 -326 0
-83 -287 -327 0
-83 -288 -328 0
-83 -289 -329 0
-83 -290 -330 0
-83 -291 -331 0
-84 -287 -332 0
-84 -288 -333 0
-84 -289 -334 0
-84 -290 -335 0
-84 -291 -336 0
-85 -287 -337 0
-85 -288 -338 0
-85 -289 -339 0
-85 -290 -340 0
-85 -291 -341 0
-86 -287 -342 0
-86 -288 -343 0
-86 -289 -344 0
-86 -290 -345 0
-86 -291 -346 0
-87 -287 -347 0
-87 -288 -348 0
-87 -289 -349 0
-87 -290 -350 0
-87 -291 -351 0
-88 -292 -297 0
-88 -293 -298 0
-88 -294 -299 0
-88 -295 -300 0
-88 -296 -301 0
-89 -292 -302 0
-89 -293 -303 0
-89 -294 -304 0
-89 -295 -305 0
-89 -296 -306 0
-90 -292 -307 0
-90 -293 -308 0
-90 -294 -309 0
-90 -295 -310 0
-90 -296 -311 0
-91 -292 -312 0
-91 -293 -313 0
-91 -294 -314 0
-91 -295 -315 0
-91 -296 -316 0
-92 -292 -317 0
-92 -293 -318 0
-92 -294 -319 0
-92 -295 -320 0
-92 -296 -321 0
-93 -292 -322 0
-93 -293 -323 0
-93 -294 -324 0
-93 -295 -325 0
-93 -296 -326 0
-94 -292 -327 0
-94 -293 -328 0
-94 -294 -329 0
-94 -295 -330 0
-94 -296 -331 0
-95 -292 -332 0
-95 -293 -333 0
-95 -294 -334 0
-95 -295 -335 0
-95 -296 -336 0
-96 -292 -337 0
-96 -293 -338 0
-96 -294 -339 0
-96 -295 -340 0
-96 -296 -341 0
-97 -292 -342 0
-97 -293 -343 0
-97 -294 -344 0
-97 -295 -345 0
-97 -296 -346 0
-98 -292 -347 0
-98 -293 -348 0
-98 -294 -349 0
-98 -295 -350 0
-98 -296 -351 0
-99 -297 -302 0
-99 -298 -303 0
-99 -299 -304 0
-99 -300 -305 0
-99 -301 -306 0
-100 -297 -307 0
-100 -298 -308 0
-100 -299 -309 0
-100 -300 -310 0
-100 -301 -311 0
-101 -297 -312 0
-101 -298 -313 0
-101 -299 -314 0
-101 -300 -315 0
-101 -301 -316 0
-102 -297 -317 0
-102 -298 -318 0
-102 -299 -319 0
-102 -300 -320 0
-102 -301 -321 0
-103 -297 -322 0
-103 -298 -323 0
-103 -299 -324 0
-103 -300 -325 0
-103 -301 -326 0
-104 -297 -327 0
-104 -298 -328 0
-104 -299 -329 0
-104 -300 -330 0
-104 -301 -331 0
-105 -297 -332 0
-105 -298 -333 0
-105 -299 -334 0
-105 -300 -335 0
-105 -301 -336 0
-106 -297 -337 0
-106 -298 -338 0
-106 -299 -339 0
-106 -300 -340 0
-106 -301 -341 0
-107 -297 -342 0
-107 -298 -343 0
-107 -299 -344 0
-107 -300 -345 0
-107 -301 -346 0
-108 -297 -347 0
-108 -298 -348 0
-108 -299 -349 0
-108 -300 -350 0
-108 -301 -351 0
-109 -302 -307 0
-109 -303 -308 0
-109 -304 -309 0
-109 -305 -310 0
-109 -306 -311 0
-110 -302 -312 0
-110 -303 -313 0
-110 -304 -314 0
-110 -305 -315 0
-110 -306 -316 0
-111 -302 -317 0
-111 -303 -318 0
-111 -304 -319 0
-111 -305 -320 0
-111 -306 -321 0
-112 -302 -322 0
-112 -303 -323 0
-112 -304 -324 0
-112 -305 -325 0
-112 -306 -326 0
-113 -302 -327 0
-113 -303 -328 0
-113 -304 -329 0
-113 -305 -330 0
-113 -306 -331 0
-114 -302 -332 0
-114 -303 -333 0
-114 -304 -334 0
-114 -305 -335 0
-114 -306 -336 0
-115 -302 -337 0
-115 -303 -338 0
-115 -304 -339 0
-115 -305 -340 0
-115 -306 -341 0
-116 -302 -342 0
-116 -303 -343 0
-116 -304 -344 0
-116 -305 -345 0
-116 -306 -346 0
-117 -302 -347 0
-117 -303 -348 0
-117 -304 -349 0
-117 -305 -350 0
-117 -306 -351 0
-118 -307 -312 0
-118 -308 -313 0
-118 -309 -314 0
-118 -310 -315 0
-118 -311 -316 0
-119 -307 -317 0
-119 -308 -318 0
-119 -309 -319 0
-119 -310 -320 0
-119 -311 -321 0
-120 -307 -322 0
-120 -308 -323 0
-120 -309 -324 0
-120 -310 -325 0
-120 -311 -326 0
-121 -307 -327 0
-121 -308 -328 0
-121 -309 -329 0
-121 -310 -330 0
-121 -311 -331 0
-122 -307 -332 0
-122 -308 -333 0
-122 -309 -334 0
-122 -310 -335 0
-122 -311 -336 0
-123 -307 -337 0
-123 -308 -338 0
-123 -309 -339 0
-123 -310 -340 0
-123 -311 -341 0
-124 -307 -342 0
-124 -308 -343 0
-124 -309 -344 0
-124 -310 -345 0
-124 -311 -346 0
-125 -307 -347 0
-125 -308 -348 0
-125 -309 -349 0
-125 -310 -350 0
-125 -311 -351 0
-126 -312 -317 0
-126 -313 -318 0
-126 -314 -319 0
-126 -315 -320 0
-126 -316 -321 0
-127 -312 -322 0
-127 -313 -323 0
-127 -314 -324 0
-127 -315 -325 0
-127 -316 -326 0
-128 -312 -327 0
-128 -313 -328 0
-128 -314 -329 0
-128 -315 -330 0
-128 -316 -331 0
-129 -312 -332 0
-129 -313 -333 0
-129 -314 -334 0
-129 -315 -335 0
-129 -316 -336 0
-130 -312 -337 0
-130 -313 -338 0
-130 -314 -339 0
-130 -315 -340 0
-130 -316 -341 0
-131 -312 -342 0
-131 -313 -343 0
-131 -314 -344 0
-131 -315 -345 0
-131 -316 -346 0
-132 -312 -347 0
-132 -313 -348 0
-132 -314 -349 0
-132 -315 -350 0
-132 -316 -351 0
-133 -317 -322 0
-133 -318 -323 0
-133 -319 -324 0
-133 -320 -325 0
-133 -321 -326 0
-134 -317 -327 0
-134 -318 -328 0
-134 -319 -329 0
-134 -320 -330 0
-134 -321 -331 0
-135 -317 -332 0
-135 -318 -333 0
-135 -319 -334 0
-135 -320 -335 0
-135 -321 -336 0
-136 -317 -337 0
-136 -318 -338 0
-136 -319 -339 0
-136 -320 -340 0
-136 -321 -341 0
-137 -317 -342 0
-137 -318 -343 0
-137 -319 -344 0
-137 -320 -345 0
-137 -321 -346 0
-138 -317 -347 0
-138 -318 -348 0
-138 -319 -349 0
-138 -320 -350 0
-138 -321 -351 0
-139 -322 -327 0
-139 -323 -328 0
-139 -324 -329 0
-139 -325 -330 0
-139 -326 -331 0
-140 -322 -332 0
-140 -323 -333 0
-140 -324 -334 0
-140 -325 -335 0
-140 -326 -336 0
-141 -322 -337 0
-141 -323 -338 0
-141 -324 -339 0
-141 -325 -340 0
-141 -326 -341 0
-142 -322 -342 0
-142 -323 -343 0
-142 -324 -344 0
-142 -325 -345 0
-142 -326 -346 0
-143 -322 -347 0
-143 -323 -348 0
-143 -324 -349 0
-143 -325 -350 0
-143 -326 -351 0
-144 -327 -332 0
-144 -328 -333 0
-144 -329 -334 0
-144 -330 -335 0
-144 -331 -336 0
-145 -327 -337 0
-145 -328 -338 0
-145 -329 -339 0
-145 -330 -340 0
-145 -331 -341 0
-146 -327 -342 0
-146 -328 -343 0
-146 -329 -344 0
-146 -330 -345 0
-146 -331 -346 0
-147 -327 -347 0
-147 -328 -348 0
-147 -329 -349 0
-147 -330 -350 0
-147 -331 -351 0
-148 -332 -337 0
-148 -333 -338 0
-148 -334 -339 0
-148 -335 -340 0
-148 -336 -341 0
-149 -332 -342 0
-149 -333 -343 0
-149 -334 -344 0
-149 -335 -345 0
-149 -336 -346 0
-150 -332 -347 0
-150 -333 -348 0
-150 -334 -349 0
-150 -335 -350 0
-150 -336 -351 0
-151 -337 -342 0
-151 -338 -343 0
-151 -339 -344 0
-151 -340 -345 0
-151 -341 -346 0
-152 -337 -347 0
-152 -338 -348 0
-152 -339 -349 0
-152 -340 -350 0
-152 -341 -351 0
-153 -342 -347 0
-153 -343 -348 0
-153 -344 -349 0
-153 -345 -350 0
-153 -346 -351 0
352 0
-226 244 0
244 -352 353 0
-226 -352 353 0
-353 -227 245 0
245 -353 354 0
-227 -353 354 0
-354 -228 246 0
246 -354 355 0
-228 -354 355 0
-355 -229 247 0
247 -355 356 0
-229 -355 356 0
-356 -230 248 0
248 -356 357 0
-230 -356 357 0
-357 -231 249 0
249 -357 358 0
-231 -357 358 0
-358 -232 250 0
250 -358 359 0
-232 -358 359 0
-359 -233 251 0
251 -359 360 0
-233 -359 360 0
-360 -234 252 0
252 -360 361 0
-234 -360 361 0
-361 -235 253 0
253 -361 362 0
-235 -361 362 0
-362 -236 254 0
254 -362 363 0
-236 -362 363 0
-363 -237 255 0
255 -363 364 0
-237 -363 364 0
-364 -238 256 0
256 -364 365 0
-238 -364 365 0
-365 -239 257 0
257 -365 366 0
-239 -365 366 0
-366 -240 258 0
258 -366 367 0
-240 -366 367 0
-367 -241 259 0
259 -367 368 0
-241 -367 368 0
-368 -242 260 0
260 -368 369 0
-242 -368 369 0
-369 -243 261 0
370 0
-208 226 0
226 -370 371 0
-208 -370 371 0
-371 -209 227 0
227 -371 372 0
-209 -371 372 0
-372 -210 228 0
228 -372 373 0
-210 -372 373 0
-373 -211 229 0
229 -373 374 0
-211 -373 374 0
-374 -212 230 0
230 -374 375 0
-212 -374 375 0
-375 -213 231 0
231 -375 376 0
-213 -375 376 0
-376 -214 232 0
232 -376 377 0
-214 -376 377 0
-377 -215 233 0
233 -377 378 0
-215 -377 378 0
-378 -216 234 0
234 -378 379 0
-216 -378 379 0
-379 -217 235 0
235 -379 380 0
-217 -379 380 0
-380 -218 236 0
236 -380 381 0
-218 -380 381 0
-381 -219 237 0
237 -381 382 0
-219 -381 382 0
-382 -220 238 0
238 -382 383 0
-220 -382 383 0
-383 -221 239 0
239 -383 384 0
-221 -383 384 0
-384 -222 240 0
240 -384 385 0
-222 -384 385 0
-385 -223 241 0
241 -385 386 0
-223 -385 386 0
-386 -224 242 0
242 -386 387 0
-224 -386 387 0
-387 -225 243 0
388 0
-190 208 0
208 -388 389 0
-190 -388 389 0
-389 -191 209 0
209 -389 390 0
-191 -389 390 0
-390 -192 210 0
210 -390 391 0
-192 -390 391 0
-391 -193 211 0
211 -391 392 0
-193 -391 392 0
-392 -194 212 0
212 -392 393 0
-194 -392 393 0
-393 -195 213 0
213 -393 394 0
-195 -393 394 0
-394 -196 214 0
214 -394 395 0
-196 -394 395 0
-395 -197 215 0
215 -395 396 0
-197 -395 396 0
-396 -198 216 0
216 -396 397 0
-198 -396 397 0
-397 -199 217 0
217 -397 398 0
-199 -397 398 0
-398 -200 218 0
218 -398 399 0
-200 -398 399 0
-399 -201 219 0
219 -399 400 0
-201 -399 400 0
-400 -202 220 0
220 -400 401 0
-202 -400 401 0
-401 -203 221 0
221 -401 402 0
-203 -401 402 0
-402 -204 222 0
222 -402 403 0
-204 -402 403 0
-403 -205 223 0
223 -403 404 0
-205 -403 404 0
-404 -206 224 0
224 -404 405 0
-206 -404 405 0
-405 -207 225 0
406 0
-172 190 0
190 -406 407 0
-172 -406 407 0
-407 -173 191 0
191 -407 408 0
-173 -407 408 0
-408 -174 192 0
192 -408 409 0
-174 -408 409 0
-409 -175 193 0
193 -409 410 0
-175 -409 410 0
-410 -176 194 0
194 -410 411 0
-176 -410 411 0
-411 -177 195 0
195 -411 412 0
-177 -411 412 0
-412 -178 196 0
196 -412 413 0
-178 -412 413 0
-413 -179 197 0
197 -413 414 0
-179 -413 414 0
-414 -180 198 0
198 -414 415 0
-180 -414 415 0
-415 -181 199 0
199 -415 416 0
-181 -415 416 0
-416 -182 200 0
200 -416 417 0
-182 -416 417 0
-417 -183 201 0
201 -417 418 0
-183 -417 418 0
-418 -184 202 0
202 -418 419 0
-184 -418 419 0
-419 -185 203 0
203 -419 420 0
-185 -419 420 0
-420 -186 204 0
204 -420 421 0
-186 -420 421 0
-421 -187 205 0
205 -421 422 0
-187 -421 422 0
-422 -188 206 0
206 -422 423 0
-188 -422 423 0
-423 -189 207 0
424 0
-154 172 0
172 -424 425 0
-154 -424 425 0
-425 -155 173 0
173 -425 426 0
-155 -425 426 0
-426 -156 174 0
174 -426 427 0
-156 -426 427 0
-427 -157 175 0
175 -427 428 0
-157 -427 428 0
-428 -158 176 0
176 -428 429 0
-158 -428 429 0
-429 -159 177 0
177 -429 430 0
-159 -429 430 0
-430 -160 178 0
178 -430 431 0
-160 -430 431 0
-431 -161 179 0
179 -431 432 0
-161 -431 432 0
-432 -162 180 0
180 -432 433 0
-162 -432 433 0
-433 -163 181 0
181 -433 434 0
-163 -433 434 0
-434 -164 182 0
182 -434 435 0
-164 -434 435 0
-435 -165 183 0
183 -435 436 0
-165 -435 436 0
-436 -166 184 0
184 -436 437 0
-166 -436 437 0
-437 -167 185 0
185 -437 438 0
-167 -437 438 0
-438 -168 186 0
186 -438 439 0
-168 -438 439 0
-439 -169 187 0
187 -439 440 0
-169 -439 440 0
-440 -170 188 0
188 -440 441 0
-170 -440 441 0
-441 -171 189 0
442 0
-265 266 0
266 -442 443 0
-265 -442 443 0
-443 -270 271 0
271 -443 444 0
-270 -443 444 0
-444 -275 276 0
276 -444 445 0
-275 -444 445 0
-445 -280 281 0
281 -445 446 0
-280 -445 446 0
-446 -285 286 0
286 -446 447 0
-285 -446 447 0
-447 -290 291 0
291 -447 448 0
-290 -447 448 0
-448 -295 296 0
296 -448 449 0
-295 -448 449 0
-449 -300 301 0
301 -449 450 0
-300 -449 450 0
-450 -305 306 0
306 -450 451 0
-305 -450 451 0
-451 -310 311 0
311 -451 452 0
-310 -451 452 0
-452 -315 316 0
316 -452 453 0
-315 -452 453 0
-453 -320 321 0
321 -453 454 0
-320 -453 454 0
-454 -325 326 0
326 -454 455 0
-325 -454 455 0
-455 -330 331 0
331 -455 456 0
-330 -455 456 0
-456 -335 336 0
336 -456 457 0
-335 -456 457 0
-457 -340 341 0
341 -457 458 0
-340 -457 458 0
-458 -345 346 0
346 -458 459 0
-345 -458 459 0
-459 -350 351 0
460 0
-264 265 0
265 -460 461 0
-264 -460 461 0
-461 -269 270 0
270 -461 462 0
-269 -461 462 0
-462 -274 275 0
275 -462 463 0
-274 -462 463 0
-463 -279 280 0
280 -463 464 0
-279 -463 464 0
-464 -284 285 0
285 -464 465 0
-284 -464 465 0
-465 -289 290 0
290 -465 466 0
-289 -465 466 0
-466 -294 295 0
295 -466 467 0
-294 -466 467 0
-467 -299 300 0
300 -467 468 0
-299 -467 468 0
-468 -304 305 0
305 -468 469 0
-304 -468 469 0
-469 -309 310 0
310 -469 470 0
-309 -469 470 0
-470 -314 315 0
315 -470 471 0
-314 -470 471 0
-471 -319 320 0
320 -471 472 0
-319 -471 472 0
-472 -324 325 0
325 -472 473 0
-324 -472 473 0
-473 -329 330 0
330 -473 474 0
-329 -473 474 0
-474 -334 335 0
335 -474 475 0
-334 -474 475 0
-475 -339 340 0
340 -475 476 0
-339 -475 476 0
-476 -344 345 0
345 -476 477 0
-344 -476 477 0
-477 -349 350 0
478 0
-263 264 0
264 -478 479 0
-263 -478 479 0
-479 -268 269 0
269 -479 480 0
-268 -479 480 0
-480 -273 274 0
274 -480 481 0
-273 -480 481 0
-481 -278 279 0
279 -481 482 0
-278 -481 482 0
-482 -283 284 0
284 -482 483 0
-283 -482 483 0
-483 -288 289 0
289 -483 484 0
-288 -483 484 0
-484 -293 294 0
294 -484 485 0
-293 -484 485 0
-485 -298 299 0
299 -485 486 0
-298 -485 486 0
-486 -303 304 0
304 -486 487 0
-303 -486 487 0
-487 -308 309 0
309 -487 488 0
-308 -487 488 0
-488 -313 314 0
314 -488 489 0
-313 -488 489 0
-489 -318 319 0
319 -489 490 0
-318 -489 490 0
-490 -323 324 0
324 -490 491 0
-323 -490 491 0
-491 -328 329 0
329 -491 492 0
-328 -491 492 0
-492 -333 334 0
334 -492 493 0
-333 -492 493 0
-493 -338 339 0
339 -493 494 0
-338 -493 494 0
-494 -343 344 0
344 -494 495 0
-343 -494 495 0
-495 -348 349 0
496 0
-262 263 0
263 -496 497 0
-262 -496 497 0
-497 -267 268 0
268 -497 498 0
-267 -497 498 0
-498 -272 273 0
273 -498 499 0
-272 -498 499 0
-499 -277 278 0
278 -499 500 0
-277 -499 500 0
-500 -282 283 0
283 -500 501 0
-282 -500 501 0
-501 -287 288 0
288 -501 502 0
-287 -501 502 0
-502 -292 293 0
293 -502 503 0
-292 -502 503 0
-503 -297 298 0
298 -503 504 0
-297 -503 504 0
-504 -302 303 0
303 -504 505 0
-302 -504 505 0
-505 -307 308 0
308 -505 506 0
-307 -505 506 0
-506 -312 313 0
313 -506 507 0
-312 -506 507 0
-507 -317 318 0
318 -507 508 0
-317 -507 508 0
-508 -322 323 0
323 -508 509 0
-322 -508 509 0
-509 -327 328 0
328 -509 510 0
-327 -509 510 0
-510 -332 333 0
333 -510 511 0
-332 -510 511 0
-511 -337 338 0
338 -511 512 0
-337 -511 512 0
-512 -342 343 0
343 -512 513 0
-342 -512 513 0
-513 -347 348 0
514 0
-154 155 0
155 -514 515 0
-154 -514 515 0
-515 -155 154 0
154 -515 516 0
-155 -515 516 0
-516 -172 173 0
173 -516 517 0
-172 -516 517 0
-517 -173 172 0
172 -517 518 0
-173 -517 518 0
-518 -190 191 0
191 -518 519 0
-190 -518 519 0
-519 -191 190 0
190 -519 520 0
-191 -519 520 0
-520 -208 209 0
209 -520 521 0
-208 -520 521 0
-521 -209 208 0
208 -521 522 0
-209 -521 522 0
-522 -226 227 0
227 -522 523 0
-226 -522 523 0
-523 -227 226 0
226 -523 524 0
-227 -523 524 0
-524 -244 245 0
245 -524 525 0
-244 -524 525 0
-525 -245 244 0
244 -525 526 0
-245 -525 526 0
-526 -262 267 0
267 -526 527 0
-262 -526 527 0
-527 -267 262 0
262 -527 528 0
-267 -527 528 0
-528 -263 268 0
268 -528 529 0
-263 -528 529 0
-529 -268 263 0
263 -529 530 0
-268 -529 530 0
-530 -264 269 0
269 -530 531 0
-264 -530 531 0
-531 -269 264 0
264 -531 532 0
-269 -531 532 0
-532 -265 270 0
270 -532 533 0
-265 -532 533 0
-533 -270 265 0
265 -533 534 0
-270 -533 534 0
-534 -266 271 0
271 -534 535 0
-266 -534 535 0
-535 -271 266 0
266 -535 536 0
-271 -535 536 0
-536 -2 18 0
18 -536 537 0
-2 -536 537 0
-537 -3 19 0
19 -537 538 0
-3 -537 538 0
-538 -4 20 0
20 -538 539 0
-4 -538 539 0
-539 -5 21 0
21 -539 540 0
-5 -539 540 0
-540 -6 22 0
541 0
-155 156 0
156 -541 542 0
-155 -541 542 0
-542 -156 155 0
155 -542 543 0
-156 -542 543 0
-543 -173 174 0
174 -543 544 0
-173 -543 544 0
-544 -174 173 0
173 -544 545 0
-174 -544 545 0
-545 -191 192 0
192 -545 546 0
-191 -545 546 0
-546 -192 191 0
191 -546 547 0
-192 -546 547 0
-547 -209 210 0
210 -547 548 0
-209 -547 548 0
-548 -210 209 0
209 -548 549 0
-210 -548 549 0
-549 -227 228 0
228 -549 550 0
-227 -549 550 0
-550 -228 227 0
227 -550 551 0
-228 -550 551 0
-551 -245 246 0
246 -551 552 0
-245 -551 552 0
-552 -246 245 0
245 -552 553 0
-246 -552 553 0
-553 -267 272 0
272 -553 554 0
-267 -553 554 0
-554 -272 267 0
267 -554 555 0
-272 -554 555 0
-555 -268 273 0
273 -555 556 0
-268 -555 556 0
-556 -273 268 0
268 -556 557 0
-273 -556 557 0
-557 -269 274 0
274 -557 558 0
-269 -557 558 0
-558 -274 269 0
269 -558 559 0
-274 -558 559 0
-559 -270 275 0
275 -559 560 0
-270 -559 560 0
-560 -275 270 0
270 -560 561 0
-275 -560 561 0
-561 -271 276 0
276 -561 562 0
-271 -561 562 0
-562 -276 271 0
271 -562 563 0
-276 -562 563 0
-563 -1 2 0
2 -563 564 0
-1 -563 564 0
-564 -2 1 0
1 -564 565 0
-2 -564 565 0
-565 -19 34 0
34 -565 566 0
-19 -565 566 0
-566 -20 35 0
35 -566 567 0
-20 -566 567 0
-567 -21 36 0
568 0
-156 157 0
157 -568 569 0
-156 -568 569 0
-569 -157 156 0
156 -569 570 0
-157 -569 570 0
-570 -174 175 0
175 -570 571 0
-174 -570 571 0
-571 -175 174 0
174 -571 572 0
-175 -571 572 0
-572 -192 193 0
193 -572 573 0
-192 -572 573 0
-573 -193 192 0
192 -573 574 0
-193 -573 574 0
-574 -210 211 0
211 -574 575 0
-210 -574 575 0
-575 -211 210 0
210 -575 576 0
-211 -575 576 0
-576 -228 229 0
229 -576 577 0
-228 -576 577 0
-577 -229 228 0
228 -577 578 0
-229 -577 578 0
-578 -246 247 0
247 -578 579 0
-246 -578 579 0
-579 -247 246 0
246 -579 580 0
-247 -579 580 0
-580 -272 277 0
277 -580 581 0
-272 -580 581 0
-581 -277 272 0
272 -581 582 0
-277 -581 582 0
-582 -273 278 0
278 -582 583 0
-273 -582 583 0
-583 -278 273 0
273 -583 584 0
-278 -583 584 0
-584 -274 279 0
279 -584 585 0
-274 -584 585 0
-585 -279 274 0
274 -585 586 0
-279 -585 586 0
-586 -275 280 0
280 -586 587 0
-275 -586 587 0
-587 -280 275 0
275 -587 588 0
-280 -587 588 0
-588 -276 281 0
281 -588 589 0
-276 -588 589 0
-589 -281 276 0
276 -589 590 0
-281 -589 590 0
-590 -2 3 0
3 -590 591 0
-2 -590 591 0
-591 -3 2 0
2 -591 592 0
-3 -591 592 0
-592 -18 19 0
19 -592 593 0
-18 -592 593 0
-593 -19 18 0
18 -593 594 0
-19 -593 594 0
-594 -35 49 0
595 0
-157 158 0
158 -595 596 0
-157 -595 596 0
-596 -158 157 0
157 -596 597 0
-158 -596 597 0
-597 -175 176 0
176 -597 598 0
-175 -597 598 0
-598 -176 175 0
175 -598 599 0
-176 -598 599 0
-599 -193 194 0
194 -599 600 0
-193 -599 600 0
-600 -194 193 0
193 -600 601 0
-194 -600 601 0
-601 -211 212 0
212 -601 602 0
-211 -601 602 0
-602 -212 211 0
211 -602 603 0
-212 -602 603 0
-603 -229 230 0
230 -603 604 0
-229 -603 604 0
-604 -230 229 0
229 -604 605 0
-230 -604 605 0
-605 -247 248 0
248 -605 606 0
-247 -605 606 0
-606 -248 247 0
247 -606 607 0
-248 -606 607 0
-607 -277 282 0
282 -607 608 0
-277 -607 608 0
-608 -282 277 0
277 -608 609 0
-282 -608 609 0
-609 -278 283 0
283 -609 610 0
-278 -609 610 0
-610 -283 278 0
278 -610 611 0
-283 -610 611 0
-611 -279 284 0
284 -611 612 0
-279 -611 612 0
-612 -284 279 0
279 -612 613 0
-284 -612 613 0
-613 -280 285 0
285 -613 614 0
-280 -613 614 0
-614 -285 280 0
280 -614 615 0
-285 -614 615 0
-615 -281 286 0
286 -615 616 0
-281 -615 616 0
-616 -286 281 0
281 -616 617 0
-286 -616 617 0
-617 -3 4 0
4 -617 618 0
-3 -617 618 0
-618 -4 3 0
3 -618 619 0
-4 -618 619 0
-619 -19 20 0
20 -619 620 0
-19 -619 620 0
-620 -20 19 0
19 -620 621 0
-20 -620 621 0
-621 -34 35 0
622 0
-158 159 0
159 -622 623 0
-158 -622 623 0
-623 -159 158 0
158 -623 624 0
-159 -623 624 0
-624 -176 177 0
177 -624 625 0
-176 -624 625 0
-625 -177 176 0
176 -625 626 0
-177 -625 626 0
-626 -194 195 0
195 -626 627 0
-194 -626 627 0
-627 -195 194 0
194 -627 628 0
-195 -627 628 0
-628 -212 213 0
213 -628 629 0
-212 -628 629 0
-629 -213 212 0
212 -629 630 0
-213 -629 630 0
-630 -230 231 0
231 -630 631 0
-230 -630 631 0
-631 -231 230 0
230 -631 632 0
-231 -631 632 0
-632 -248 249 0
249 -632 633 0
-248 -632 633 0
-633 -249 248 0
248 -633 634 0
-249 -633 634 0
-634 -282 287 0
287 -634 635 0
-282 -634 635 0
-635 -287 282 0
282 -635 636 0
-287 -635 636 0
-636 -283 288 0
288 -636 637 0
-283 -636 637 0
-637 -288 283 0
283 -637 638 0
-288 -637 638 0
-638 -284 289 0
289 -638 639 0
-284 -638 639 0
-639 -289 284 0
284 -639 640 0
-289 -639 640 0
-640 -285 290 0
290 -640 641 0
-285 -640 641 0
-641 -290 285 0
285 -641 642 0
-290 -641 642 0
-642 -286 291 0
291 -642 643 0
-286 -642 643 0
-643 -291 286 0
286 -643 644 0
-291 -643 644 0
-644 -4 5 0
5 -644 645 0
-4 -644 645 0
-645 -5 4 0
4 -645 646 0
-5 -645 646 0
-646 -20 21 0
21 -646 647 0
-20 -646 647 0
-647 -21 20 0
20 -647 648 0
-21 -647 648 0
-648 -35 36 0
649 0
-159 160 0
160 -649 650 0
-159 -649 650 0
-650 -160 159 0
159 -650 651 0
-160 -650 651 0
-651 -177 178 0
178 -651 652 0
-177 -651 652 0
-652 -178 177 0
177 -652 653 0
-178 -652 653 0
-653 -195 196 0
196 -653 654 0
-195 -653 654 0
-654 -196 195 0
195 -654 655 0
-196 -654 655 0
-655 -213 214 0
214 -655 656 0
-213 -655 656 0
-656 -214 213 0
213 -656 657 0
-214 -656 657 0
-657 -231 232 0
232 -657 658 0
-231 -657 658 0
-658 -232 231 0
231 -658 659 0
-232 -658 659 0
-659 -249 250 0
250 -659 660 0
-249 -659 660 0
-660 -250 249 0
249 -660 661 0
-250 -660 661 0
-661 -287 292 0
292 -661 662 0
-287 -661 662 0
-662 -292 287 0
287 -662 663 0
-292 -662 663 0
-663 -288 293 0
293 -663 664 0
-288 -663 664 0
-664 -293 288 0
288 -664 665 0
-293 -664 665 0
-665 -289 294 0
294 -665 666 0
-289 -665 666 0
-666 -294 289 0
289 -666 667 0
-294 -666 667 0
-667 -290 295 0
295 -667 668 0
-290 -667 668 0
-668 -295 290 0
290 -668 669 0
-295 -668 669 0
-669 -291 296 0
296 -669 670 0
-291 -669 670 0
-670 -296 291 0
291 -670 671 0
-296 -670 671 0
-671 -5 6 0
6 -671 672 0
-5 -671 672 0
-672 -6 5 0
5 -672 673 0
-6 -672 673 0
-673 -21 22 0
22 -673 674 0
-21 -673 674 0
-674 -22 21 0
21 -674 675 0
-22 -674 675 0
-675 -36 37 0
676 0
-160 161 0
161 -676 677 0
-160 -676 677 0
-677 -161 160 0
160 -677 678 0
-161 -677 678 0
-678 -178 179 0
179 -678 679 0
-178 -678 679 0
-679 -179 178 0
178 -679 680 0
-179 -679 680 0
-680 -196 197 0
197 -680 681 0
-196 -680 681 0
-681 -197 196 0
196 -681 682 0
-197 -681 682 0
-682 -214 215 0
215 -682 683 0
-214 -682 683 0
-683 -215 214 0
214 -683 684 0
-215 -683 684 0
-684 -232 233 0
233 -684 685 0
-232 -684 685 0
-685 -233 232 0
232 -685 686 0
-233 -685 686 0
-686 -250 251 0
251 -686 687 0
-250 -686 687 0
-687 -251 250 0
250 -687 688 0
-251 -687 688 0
-688 -292 297 0
297 -688 689 0
-292 -688 689 0
-689 -297 292 0
292 -689 690 0
-297 -689 690 0
-690 -293 298 0
298 -690 691 0
-293 -690 691 0
-691 -298 293 0
293 -691 692 0
-298 -691 692 0
-692 -294 299 0
299 -692 693 0
-294 -692 693 0
-693 -299 294 0
294 -693 694 0
-299 -693 694 0
-694 -295 300 0
300 -694 695 0
-295 -694 695 0
-695 -300 295 0
295 -695 696 0
-300 -695 696 0
-696 -296 301 0
301 -696 697 0
-296 -696 697 0
-697 -301 296 0
296 -697 698 0
-301 -697 698 0
-698 -6 7 0
7 -698 699 0
-6 -698 699 0
-699 -7 6 0
6 -699 700 0
-7 -699 700 0
-700 -22 23 0
23 -700 701 0
-22 -700 701 0
-701 -23 22 0
22 -701 702 0
-23 -701 702 0
-702 -37 38 0
703 0
-161 162 0
162 -703 704 0
-161 -703 704 0
-704 -162 161 0
161 -704 705 0
-162 -704 705 0
-705 -179 180 0
180 -705 706 0
-179 -705 706 0
-706 -180 179 0
179 -706 707 0
-180 -706 707 0
-707 -197 198 0
198 -707 708 0
-197 -707 708 0
-708 -198 197 0
197 -708 709 0
-198 -708 709 0
-709 -215 216 0
216 -709 710 0
-215 -709 710 0
-710 -216 215 0
215 -710 711 0
-216 -710 711 0
-711 -233 234 0
234 -711 712 0
-233 -711 712 0
-712 -234 233 0
233 -712 713 0
-234 -712 713 0
-713 -251 252 0
252 -713 714 0
-251 -713 714 0
-714 -252 251 0
251 -714 715 0
-252 -714 715 0
-715 -297 302 0
302 -715 716 0
-297 -715 716 0
-716 -302 297 0
297 -716 717 0
-302 -716 717 0
-717 -298 303 0
303 -717 718 0
-298 -717 718 0
-718 -303 298 0
298 -718 719 0
-303 -718 719 0
-719 -299 304 0
304 -719 720 0
-299 -719 720 0
-720 -304 299 0
299 -720 721 0
-304 -720 721 0
-721 -300 305 0
305 -721 722 0
-300 -721 722 0
-722 -305 300 0
300 -722 723 0
-305 -722 723 0
-723 -301 306 0
306 -723 724 0
-301 -723 724 0
-724 -306 301 0
301 -724 725 0
-306 -724 725 0
-725 -7 8 0
8 -725 726 0
-7 -725 726 0
-726 -8 7 0
7 -726 727 0
-8 -726 727 0
-727 -23 24 0
24 -727 728 0
-23 -727 728 0
-728 -24 23 0
23 -728 729 0
-24 -728 729 0
-729 -38 39 0
730 0
-162 163 0
163 -730 731 0
-162 -730 731 0
-731 -163 162 0
162 -731 732 0
-163 -731 732 0
-732 -180 181 0
181 -732 733 0
-180 -732 733 0
-733 -181 180 0
180 -733 734 0
-181 -733 734 0
-734 -198 199 0
199 -734 735 0
-198 -734 735 0
-735 -199 198 0
198 -735 736 0
-199 -735 736 0
-736 -216 217 0
217 -736 737 0
-216 -736 737 0
-737 -217 216 0
216 -737 738 0
-217 -737 738 0
-738 -234 235 0
235 -738 739 0
-234 -738 739 0
-739 -235 234 0
234 -739 740 0
-235 -739 740 0
-740 -252 253 0
253 -740 741 0
-252 -740 741 0
-741 -253 252 0
252 -741 742 0
-253 -741 742 0
-742 -302 307 0
307 -742 743 0
-302 -742 743 0
-743 -307 302 0
302 -743 744 0
-307 -743 744 0
-744 -303 308 0
308 -744 745 0
-303 -744 745 0
-745 -308 303 0
303 -745 746 0
-308 -745 746 0
-746 -304 309 0
309 -746 747 0
-304 -746 747 0
-747 -309 304 0
304 -747 748 0
-309 -747 748 0
-748 -305 310 0
310 -748 749 0
-305 -748 749 0
-749 -310 305 0
305 -749 750 0
-310 -749 750 0
-750 -306 311 0
311 -750 751 0
-306 -750 751 0
-751 -311 306 0
306 -751 752 0
-311 -751 752 0
-752 -8 9 0
9 -752 753 0
-8 -752 753 0
-753 -9 8 0
8 -753 754 0
-9 -753 754 0
-754 -24 25 0
25 -754 755 0
-24 -754 755 0
-755 -25 24 0
24 -755 756 0
-25 -755 756 0
-756 -39 40 0
757 0
-163 164 0
164 -757 758 0
-163 -757 758 0
-758 -164 163 0
163 -758 759 0
-164 -758 759 0
-759 -181 182 0
182 -759 760 0
-181 -759 760 0
-760 -182 181 0
181 -760 761 0
-182 -760 761 0
-761 -199 200 0
200 -761 762 0
-199 -761 762 0
-762 -200 199 0
199 -762 763 0
-200 -762 763 0
-763 -217 218 0
218 -763 764 0
-217 -763 764 0
-764 -218 217 0
217 -764 765 0
-218 -764 765 0
-765 -235 236 0
236 -765 766 0
-235 -765 766 0
-766 -236 235 0
235 -766 767 0
-236 -766 767 0
-767 -253 254 0
254 -767 768 0
-253 -767 768 0
-768 -254 253 0
253 -768 769 0
-254 -768 769 0
-769 -307 312 0
312 -769 770 0
-307 -769 770 0
-770 -312 307 0
307 -770 771 0
-312 -770 771 0
-771 -308 313 0
313 -771 772 0
-308 -771 772 0
-772 -313 308 0
308 -772 773 0
-313 -772 773 0
-773 -309 314 0
314 -773 774 0
-309 -773 774 0
-774 -314 309 0
309 -774 775 0
-314 -774 775 0
-775 -310 315 0
315 -775 776 0
-310 -775 776 0
-776 -315 310 0
310 -776 777 0
-315 -776 777 0
-777 -311 316 0
316 -777 778 0
-311 -777 778 0
-778 -316 311 0
311 -778 779 0
-316 -778 779 0
-779 -9 10 0
10 -779 780 0
-9 -779 780 0
-780 -10 9 0
9 -780 781 0
-10 -780 781 0
-781 -25 26 0
26 -781 782 0
-25 -781 782 0
-782 -26 25 0
25 -782 783 0
-26 -782 783 0
-783 -40 41 0
784 0
-164 165 0
165 -784 785 0
-164 -784 785 0
-785 -165 164 0
164 -785 786 0
-165 -785 786 0
-786 -182 183 0
183 -786 787 0
-182 -786 787 0
-787 -183 182 0
182 -787 788 0
-183 -787 788 0
-788 -200 201 0
201 -788 789 0
-200 -788 789 0
-789 -201 200 0
200 -789 790 0
-201 -789 790 0
-790 -218 219 0
219 -790 791 0
-218 -790 791 0
-791 -219 218 0
218 -791 792 0
-219 -791 792 0
-792 -236 237 0
237 -792 793 0
-236 -792 793 0
-793 -237 236 0
236 -793 794 0
-237 -793 794 0
-794 -254 255 0
255 -794 795 0
-254 -794 795 0
-795 -255 254 0
254 -795 796 0
-255 -795 796 0
-796 -312 317 0
317 -796 797 0
-312 -796 797 0
-797 -317 312 0
312 -797 798 0
-317 -797 798 0
-798 -313 318 0
318 -798 799 0
-313 -798 799 0
-799 -318 313 0
313 -799 800 0
-318 -799 800 0
-800 -314 319 0
319 -800 801 0
-314 -800 801 0
-801 -319 314 0
314 -801 802 0
-319 -801 802 0
-802 -315 320 0
320 -802 803 0
-315 -802 803 0
-803 -320 315 0
315 -803 804 0
-320 -803 804 0
-804 -316 321 0
321 -804 805 0
-316 -804 805 0
-805 -321 316 0
316 -805 806 0
-321 -805 806 0
-806 -10 11 0
11 -806 807 0
-10 -806 807 0
-807 -11 10 0
10 -807 808 0
-11 -807 808 0
-808 -26 27 0
27 -808 809 0
-26 -808 809 0
-809 -27 26 0
26 -809 810 0
-27 -809 810 0
-810 -41 42 0
811 0
-165 166 0
166 -811 812 0
-165 -811 812 0
-812 -166 165 0
165 -812 813 0
-166 -812 813 0
-813 -183 184 0
184 -813 814 0
-183 -813 814 0
-814 -184 183 0
183 -814 815 0
-184 -814 815 0
-815 -201 202 0
202 -815 816 0
-201 -815 816 0
-816 -202 201 0
201 -816 817 0
-202 -816 817 0
-817 -219 220 0
220 -817 818 0
-219 -817 818 0
-818 -220 219 0
219 -818 819 0
-220 -818 819 0
-819 -237 238 0
238 -819 820 0
-237 -819 820 0
-820 -238 237 0
237 -820 821 0
-238 -820 821 0
-821 -255 256 0
256 -821 822 0
-255 -821 822 0
-822 -256 255 0
255 -822 823 0
-256 -822 823 0
-823 -317 322 0
322 -823 824 0
-317 -823 824 0
-824 -322 317 0
317 -824 825 0
-322 -824 825 0
-825 -318 323 0
323 -825 826 0
-318 -825 826 0
-826 -323 318 0
318 -826 827 0
-323 -826 827 0
-827 -319 324 0
324 -827 828 0
-319 -827 828 0
-828 -324 319 0
319 -828 829 0
-324 -828 829 0
-829 -320 325 0
325 -829 830 0
-320 -829 830 0
-830 -325 320 0
320 -830 831 0
-325 -830 831 0
-831 -321 326 0
326 -831 832 0
-321 -831 832 0
-832 -326 321 0
321 -832 833 0
-326 -832 833 0
-833 -11 12 0
12 -833 834 0
-11 -833 834 0
-834 -12 11 0
11 -834 835 0
-12 -834 835 0
-835 -27 28 0
28 -835 836 0
-27 -835 836 0
-836 -28 27 0
27 -836 837 0
-28 -836 837 0
-837 -42 43 0
838 0
-166 167 0
167 -838 839 0
-166 -838 839 0
-839 -167 166 0
166 -839 840 0
-167 -839 840 0
-840 -184 185 0
185 -840 841 0
-184 -840 841 0
-841 -185 184 0
184 -841 842 0
-185 -841 842 0
-842 -202 203 0
203 -842 843 0
-202 -842 843 0
-843 -203 202 0
202 -843 844 0
-203 -843 844 0
-844 -220 221 0
221 -844 845 0
-220 -844 845 0
-845 -221 220 0
220 -845 846 0
-221 -845 846 0
-846 -238 239 0
239 -846 847 0
-238 -846 847 0
-847 -239 238 0
238 -847 848 0
-239 -847 848 0
-848 -256 257 0
257 -848 849 0
-256 -848 849 0
-849 -257 256 0
256 -849 850 0
-257 -849 850 0
-850 -322 327 0
327 -850 851 0
-322 -850 851 0
-851 -327 322 0
322 -851 852 0
-327 -851 852 0
-852 -323 328 0
328 -852 853 0
-323 -852 853 0
-853 -328 323 0
323 -853 854 0
-328 -853 854 0
-854 -324 329 0
329 -854 855 0
-324 -854 855 0
-855 -329 324 0
324 -855 856 0
-329 -855 856 0
-856 -325 330 0
330 -856 857 0
-325 -856 857 0
-857 -330 325 0
325 -857 858 0
-330 -857 858 0
-858 -326 331 0
331 -858 859 0
-326 -858 859 0
-859 -331 326 0
326 -859 860 0
-331 -859 860 0
-860 -12 13 0
13 -860 861 0
-12 -860 861 0
-861 -13 12 0
12 -861 862 0
-13 -861 862 0
-862 -28 29 0
29 -862 863 0
-28 -862 863 0
-863 -29 28 0
28 -863 864 0
-29 -863 864 0
-864 -43 44 0
865 0
-167 168 0
168 -865 866 0
-167 -865 866 0
-866 -168 167 0
167 -866 867 0
-168 -866 867 0
-867 -185 186 0
186 -867 868 0
-185 -867 868 0
-868 -186 185 0
185 -868 869 0
-186 -868 869 0
-869 -203 204 0
204 -869 870 0
-203 -869 870 0
-870 -204 203 0
203 -870 871 0
-204 -870 871 0
-871 -221 222 0
222 -871 872 0
-221 -871 872 0
-872 -222 221 0
221 -872 873 0
-222 -872 873 0
-873 -239 240 0
240 -873 874 0
-239 -873 874 0
-874 -240 239 0
239 -874 875 0
-240 -874 875 0
-875 -257 258 0
258 -875 876 0
-257 -875 876 0
-876 -258 257 0
257 -876 877 0
-258 -876 877 0
-877 -327 332 0
332 -877 878 0
-327 -877 878 0
-878 -332 327 0
327 -878 879 0
-332 -878 879 0
-879 -328 333 0
333 -879 880 0
-328 -879 880 0
-880 -333 328 0
328 -880 881 0
-333 -880 881 0
-881 -329 334 0
334 -881 882 0
-329 -881 882 0
-882 -334 329 0
329 -882 883 0
-334 -882 883 0
-883 -330 335 0
335 -883 884 0
-330 -883 884 0
-884 -335 330 0
330 -884 885 0
-335 -884 885 0
-885 -331 336 0
336 -885 886 0
-331 -885 886 0
-886 -336 331 0
331 -886 887 0
-336 -886 887 0
-887 -13 14 0
14 -887 888 0
-13 -887 888 0
-888 -14 13 0
13 -888 889 0
-14 -888 889 0
-889 -29 30 0
30 -889 890 0
-29 -889 890 0
-890 -30 29 0
29 -890 891 0
-30 -890 891 0
-891 -44 45 0
892 0
-168 169 0
169 -892 893 0
-168 -892 893 0
-893 -169 168 0
168 -893 894 0
-169 -893 894 0
-894 -186 187 0
187 -894 895 0
-186 -894 895 0
-895 -187 186 0
186 -895 896 0
-187 -895 896 0
-896 -204 205 0
205 -896 897 0
-204 -896 897 0
-897 -205 204 0
204 -897 898 0
-205 -897 898 0
-898 -222 223 0
223 -898 899 0
-222 -898 899 0
-899 -223 222 0
222 -899 900 0
-223 -899 900 0
-900 -240 241 0
241 -900 901 0
-240 -900 901 0
-901 -241 240 0
240 -901 902 0
-241 -901 902 0
-902 -258 259 0
259 -902 903 0
-258 -902 903 0
-903 -259 258 0
258 -903 904 0
-259 -903 904 0
-904 -332 337 0
337 -904 905 0
-332 -904 905 0
-905 -337 332 0
332 -905 906 0
-337 -905 906 0
-906 -333 338 0
338 -906 907 0
-333 -906 907 0
-907 -338 333 0
333 -907 908 0
-338 -907 908 0
-908 -334 339 0
339 -908 909 0
-334 -908 909 0
-909 -339 334 0
334 -909 910 0
-339 -909 910 0
-910 -335 340 0
340 -910 911 0
-335 -910 911 0
-911 -340 335 0
335 -911 912 0
-340 -911 912 0
-912 -336 341 0
341 -912 913 0
-336 -912 913 0
-913 -341 336 0
336 -913 914 0
-341 -913 914 0
-914 -14 15 0
15 -914 915 0
-14 -914 915 0
-915 -15 14 0
14 -915 916 0
-15 -915 916 0
-916 -30 31 0
31 -916 917 0
-30 -916 917 0
-917 -31 30 0
30 -917 918 0
-31 -917 918 0
-918 -45 46 0
919 0
-169 170 0
170 -919 920 0
-169 -919 920 0
-920 -170 169 0
169 -920 921 0
-170 -920 921 0
-921 -187 188 0
188 -921 922 0
-187 -921 922 0
-922 -188 187 0
187 -922 923 0
-188 -922 923 0
-923 -205 206 0
206 -923 924 0
-205 -923 924 0
-924 -206 205 0
205 -924 925 0
-206 -924 925 0
-925 -223 224 0
224 -925 926 0
-223 -925 926 0
-926 -224 223 0
223 -926 927 0
-224 -926 927 0
-927 -241 242 0
242 -927 928 0
-241 -927 928 0
-928 -242 241 0
241 -928 929 0
-242 -928 929 0
-929 -259 260 0
260 -929 930 0
-259 -929 930 0
-930 -260 259 0
259 -930 931 0
-260 -930 931 0
-931 -337 342 0
342 -931 932 0
-337 -931 932 0
-932 -342 337 0
337 -932 933 0
-342 -932 933 0
-933 -338 343 0
343 -933 934 0
-338 -933 934 0
-934 -343 338 0
338 -934 935 0
-343 -934 935 0
-935 -339 344 0
344 -935 936 0
-339 -935 936 0
-936 -344 339 0
339 -936 937 0
-344 -936 937 0
-937 -340 345 0
345 -937 938 0
-340 -937 938 0
-938 -345 340 0
340 -938 939 0
-345 -938 939 0
-939 -341 346 0
346 -939 940 0
-341 -939 940 0
-940 -346 341 0
341 -940 941 0
-346 -940 941 0
-941 -15 16 0
16 -941 942 0
-15 -941 942 0
-942 -16 15 0
15 -942 943 0
-16 -942 943 0
-943 -31 32 0
32 -943 944 0
-31 -943 944 0
-944 -32 31 0
31 -944 945 0
-32 -944 945 0
-945 -46 47 0
946 0
-170 171 0
171 -946 947 0
-170 -946 947 0
-947 -171 170 0
170 -947 948 0
-171 -947 948 0
-948 -188 189 0
189 -948 949 0
-188 -948 949 0
-949 -189 188 0
188 -949 950 0
-189 -949 950 0
-950 -206 207 0
207 -950 951 0
-206 -950 951 0
-951 -207 206 0
206 -951 952 0
-207 -951 952 0
-952 -224 225 0
225 -952 953 0
-224 -952 953 0
-953 -225 224 0
224 -953 954 0
-225 -953 954 0
-954 -242 243 0
243 -954 955 0
-242 -954 955 0
-955 -243 242 0
242 -955 956 0
-243 -955 956 0
-956 -260 261 0
261 -956 957 0
-260 -956 957 0
-957 -261 260 0
260 -957 958 0
-261 -957 958 0
-958 -342 347 0
347 -958 959 0
-342 -958 959 0
-959 -347 342 0
342 -959 960 0
-347 -959 960 0
-960 -343 348 0
348 -960 961 0
-343 -960 961 0
-961 -348 343 0
343 -961 962 0
-348 -961 962 0
-962 -344 349 0
349 -962 963 0
-344 -962 963 0
-963 -349 344 0
344 -963 964 0
-349 -963 964 0
-964 -345 350 0
350 -964 965 0
-345 -964 965 0
-965 -350 345 0
345 -965 966 0
-350 -965 966 0
-966 -346 351 0
351 -966 967 0
-346 -966 967 0
-967 -351 346 0
346 -967 968 0
-351 -967 968 0
-968 -16 17 0
17 -968 969 0
-16 -968 969 0
-969 -17 16 0
16 -969 970 0
-17 -969 970 0
-970 -32 33 0
33 -970 971 0
-32 -970 971 0
-971 -33 32 0
32 -971 972 0
-33 -971 972 0
-972 -47 48 0
