p cnf 916 10751
-92 -93 0
-92 -94 0
-92 -95 0
-92 -96 0
-92 -97 0
-92 -98 0
-92 -99 0
-92 -100 0
-92 -101 0
-92 -102 0
-92 -103 0
-92 -104 0
-92 -105 0
-93 -94 0
-93 -95 0
-93 -96 0
-93 -97 0
-93 -98 0
-93 -99 0
-93 -100 0
-93 -101 0
-93 -102 0
-93 -103 0
-93 -104 0
-93 -105 0
-94 -95 0
-94 -96 0
-94 -97 0
-94 -98 0
-94 -99 0
-94 -100 0
-94 -101 0
-94 -102 0
-94 -103 0
-94 -104 0
-94 -105 0
-95 -96 0
-95 -97 0
-95 -98 0
-95 -99 0
-95 -100 0
-95 -101 0
-95 -102 0
-95 -103 0
-95 -104 0
-95 -105 0
-96 -97 0
-96 -98 0
-96 -99 0
-96 -100 0
-96 -101 0
-96 -102 0
-96 -103 0
-96 -104 0
-96 -105 0
-97 -98 0
-97 -99 0
-97 -100 0
-97 -101 0
-97 -102 0
-97 -103 0
-97 -104 0
-97 -105 0
-98 -99 0
-98 -100 0
-98 -101 0
-98 -102 0
-98 -103 0
-98 -104 0
-98 -105 0
-99 -100 0
-99 -101 0
-99 -102 0
-99 -103 0
-99 -104 0
-99 -105 0
-100 -101 0
-100 -102 0
-100 -103 0
-100 -104 0
-100 -105 0
-101 -102 0
-101 -103 0
-101 -104 0
-101 -105 0
-102 -103 0
-102 -104 0
-102 -105 0
-103 -104 0
-103 -105 0
-104 -105 0
92 93 94 95 96 97 98 99 100 101 102 103 104 105 0
-106 -107 0
-106 -108 0
-106 -109 0
-106 -110 0
-106 -111 0
-106 -112 0
-106 -113 0
-106 -114 0
-106 -115 0
-106 -116 0
-106 -117 0
-106 -118 0
-106 -119 0
-107 -108 0
-107 -109 0
-107 -110 0
-107 -111 0
-107 -112 0
-107 -113 0
-107 -114 0
-107 -115 0
-107 -116 0
-107 -117 0
-107 -118 0
-107 -119 0
-108 -109 0
-108 -110 0
-108 -111 0
-108 -112 0
-108 -113 0
-108 -114 0
-108 -115 0
-108 -116 0
-108 -117 0
-108 -118 0
-108 -119 0
-109 -110 0
-109 -111 0
-109 -112 0
-109 -113 0
-109 -114 0
-109 -115 0
-109 -116 0
-109 -117 0
-109 -118 0
-109 -119 0
-110 -111 0
-110 -112 0
-110 -113 0
-110 -114 0
-110 -115 0
-110 -116 0
-110 -117 0
-110 -118 0
-110 -119 0
-111 -112 0
-111 -113 0
-111 -114 0
-111 -115 0
-111 -116 0
-111 -117 0
-111 -118 0
-111 -119 0
-112 -113 0
-112 -114 0
-112 -115 0
-112 -116 0
-112 -117 0
-112 -118 0
-112 -119 0
-113 -114 0
-113 -115 0
-113 -116 0
-113 -117 0
-113 -118 0
-113 -119 0
-114 -115 0
-114 -116 0
-114 -117 0
-114 -118 0
-114 -119 0
-115 -116 0
-115 -117 0
-115 -118 0
-115 -119 0
-116 -117 0
-116 -118 0
-116 -119 0
-117 -118 0
-117 -119 0
-118 -119 0
106 107 108 109 110 111 112 113 114 115 116 117 118 119 0
-120 -121 0
-120 -122 0
-120 -123 0
-120 -124 0
-120 -125 0
-120 -126 0
-120 -127 0
-120 -128 0
-120 -129 0
-120 -130 0
-120 -131 0
-120 -132 0
-120 -133 0
-121 -122 0
-121 -123 0
-121 -124 0
-121 -125 0
-121 -126 0
-121 -127 0
-121 -128 0
-121 -129 0
-121 -130 0
-121 -131 0
-121 -132 0
-121 -133 0
-122 -123 0
-122 -124 0
-122 -125 0
-122 -126 0
-122 -127 0
-122 -128 0
-122 -129 0
-122 -130 0
-122 -131 0
-122 -132 0
-122 -133 0
-123 -124 0
-123 -125 0
-123 -126 0
-123 -127 0
-123 -128 0
-123 -129 0
-123 -130 0
-123 -131 0
-123 -132 0
-123 -133 0
-124 -125 0
-124 -126 0
-124 -127 0
-124 -128 0
-124 -129 0
-124 -130 0
-124 -131 0
-124 -132 0
-124 -133 0
-125 -126 0
-125 -127 0
-125 -128 0
-125 -129 0
-125 -130 0
-125 -131 0
-125 -132 0
-125 -133 0
-126 -127 0
-126 -128 0
-126 -129 0
-126 -130 0
-126 -131 0
-126 -132 0
-126 -133 0
-127 -128 0
-127 -129 0
-127 -130 0
-127 -131 0
-127 -132 0
-127 -133 0
-128 -129 0
-128 -130 0
-128 -131 0
-128 -132 0
-128 -133 0
-129 -130 0
-129 -131 0
-129 -132 0
-129 -133 0
-130 -131 0
-130 -132 0
-130 -133 0
-131 -132 0
-131 -133 0
-132 -133 0
120 121 122 123 124 125 126 127 128 129 130 131 132 133 0
-134 -135 0
-134 -136 0
-134 -137 0
-134 -138 0
-134 -139 0
-134 -140 0
-134 -141 0
-134 -142 0
-134 -143 0
-134 -144 0
-134 -145 0
-134 -146 0
-134 -147 0
-135 -136 0
-135 -137 0
-135 -138 0
-135 -139 0
-135 -140 0
-135 -141 0
-135 -142 0
-135 -143 0
-135 -144 0
-135 -145 0
-135 -146 0
-135 -147 0
-136 -137 0
-136 -138 0
-136 -139 0
-136 -140 0
-136 -141 0
-136 -142 0
-136 -143 0
-136 -144 0
-136 -145 0
-136 -146 0
-136 -147 0
-137 -138 0
-137 -139 0
-137 -140 0
-137 -141 0
-137 -142 0
-137 -143 0
-137 -144 0
-137 -145 0
-137 -146 0
-137 -147 0
-138 -139 0
-138 -140 0
-138 -141 0
-138 -142 0
-138 -143 0
-138 -144 0
-138 -145 0
-138 -146 0
-138 -147 0
-139 -140 0
-139 -141 0
-139 -142 0
-139 -143 0
-139 -144 0
-139 -145 0
-139 -146 0
-139 -147 0
-140 -141 0
-140 -142 0
-140 -143 0
-140 -144 0
-140 -145 0
-140 -146 0
-140 -147 0
-141 -142 0
-141 -143 0
-141 -144 0
-141 -145 0
-141 -146 0
-141 -147 0
-142 -143 0
-142 -144 0
-142 -145 0
-142 -146 0
-142 -147 0
-143 -144 0
-143 -145 0
-143 -146 0
-143 -147 0
-144 -145 0
-144 -146 0
-144 -147 0
-145 -146 0
-145 -147 0
-146 -147 0
134 135 136 137 138 139 140 141 142 143 144 145 146 147 0
-148 -149 0
-148 -150 0
-148 -151 0
-148 -152 0
-148 -153 0
-148 -154 0
-148 -155 0
-148 -156 0
-148 -157 0
-148 -158 0
-148 -159 0
-148 -160 0
-148 -161 0
-149 -150 0
-149 -151 0
-149 -152 0
-149 -153 0
-149 -154 0
-149 -155 0
-149 -156 0
-149 -157 0
-149 -158 0
-149 -159 0
-149 -160 0
-149 -161 0
-150 -151 0
-150 -152 0
-150 -153 0
-150 -154 0
-150 -155 0
-150 -156 0
-150 -157 0
-150 -158 0
-150 -159 0
-150 -160 0
-150 -161 0
-151 -152 0
-151 -153 0
-151 -154 0
-151 -155 0
-151 -156 0
-151 -157 0
-151 -158 0
-151 -159 0
-151 -160 0
-151 -161 0
-152 -153 0
-152 -154 0
-152 -155 0
-152 -156 0
-152 -157 0
-152 -158 0
-152 -159 0
-152 -160 0
-152 -161 0
-153 -154 0
-153 -155 0
-153 -156 0
-153 -157 0
-153 -158 0
-153 -159 0
-153 -160 0
-153 -161 0
-154 -155 0
-154 -156 0
-154 -157 0
-154 -158 0
-154 -159 0
-154 -160 0
-154 -161 0
-155 -156 0
-155 -157 0
-155 -158 0
-155 -159 0
-155 -160 0
-155 -161 0
-156 -157 0
-156 -158 0
-156 -159 0
-156 -160 0
-156 -161 0
-157 -158 0
-157 -159 0
-157 -160 0
-157 -161 0
-158 -159 0
-158 -160 0
-158 -161 0
-159 -160 0
-159 -161 0
-160 -161 0
148 149 150 151 152 153 154 155 156 157 158 159 160 161 0
-162 -163 0
-162 -164 0
-162 -165 0
-162 -166 0
-162 -167 0
-162 -168 0
-162 -169 0
-162 -170 0
-162 -171 0
-162 -172 0
-162 -173 0
-162 -174 0
-162 -175 0
-163 -164 0
-163 -165 0
-163 -166 0
-163 -167 0
-163 -168 0
-163 -169 0
-163 -170 0
-163 -171 0
-163 -172 0
-163 -173 0
-163 -174 0
-163 -175 0
-164 -165 0
-164 -166 0
-164 -167 0
-164 -168 0
-164 -169 0
-164 -170 0
-164 -171 0
-164 -172 0
-164 -173 0
-164 -174 0
-164 -175 0
-165 -166 0
-165 -167 0
-165 -168 0
-165 -169 0
-165 -170 0
-165 -171 0
-165 -172 0
-165 -173 0
-165 -174 0
-165 -175 0
-166 -167 0
-166 -168 0
-166 -169 0
-166 -170 0
-166 -171 0
-166 -172 0
-166 -173 0
-166 -174 0
-166 -175 0
-167 -168 0
-167 -169 0
-167 -170 0
-167 -171 0
-167 -172 0
-167 -173 0
-167 -174 0
-167 -175 0
-168 -169 0
-168 -170 0
-168 -171 0
-168 -172 0
-168 -173 0
-168 -174 0
-168 -175 0
-169 -170 0
-169 -171 0
-169 -172 0
-169 -173 0
-169 -174 0
-169 -175 0
-170 -171 0
-170 -172 0
-170 -173 0
-170 -174 0
-170 -175 0
-171 -172 0
-171 -173 0
-171 -174 0
-171 -175 0
-172 -173 0
-172 -174 0
-172 -175 0
-173 -174 0
-173 -175 0
-174 -175 0
162 163 164 165 166 167 168 169 170 171 172 173 174 175 0
-176 -177 0
-176 -178 0
-176 -179 0
-176 -180 0
-176 -181 0
-176 -182 0
-176 -183 0
-176 -184 0
-176 -185 0
-176 -186 0
-176 -187 0
-176 -188 0
-176 -189 0
-177 -178 0
-177 -179 0
-177 -180 0
-177 -181 0
-177 -182 0
-177 -183 0
-177 -184 0
-177 -185 0
-177 -186 0
-177 -187 0
-177 -188 0
-177 -189 0
-178 -179 0
-178 -180 0
-178 -181 0
-178 -182 0
-178 -183 0
-178 -184 0
-178 -185 0
-178 -186 0
-178 -187 0
-178 -188 0
-178 -189 0
-179 -180 0
-179 -181 0
-179 -182 0
-179 -183 0
-179 -184 0
-179 -185 0
-179 -186 0
-179 -187 0
-179 -188 0
-179 -189 0
-180 -181 0
-180 -182 0
-180 -183 0
-180 -184 0
-180 -185 0
-180 -186 0
-180 -187 0
-180 -188 0
-180 -189 0
-181 -182 0
-181 -183 0
-181 -184 0
-181 -185 0
-181 -186 0
-181 -187 0
-181 -188 0
-181 -189 0
-182 -183 0
-182 -184 0
-182 -185 0
-182 -186 0
-182 -187 0
-182 -188 0
-182 -189 0
-183 -184 0
-183 -185 0
-183 -186 0
-183 -187 0
-183 -188 0
-183 -189 0
-184 -185 0
-184 -186 0
-184 -187 0
-184 -188 0
-184 -189 0
-185 -186 0
-185 -187 0
-185 -188 0
-185 -189 0
-186 -187 0
-186 -188 0
-186 -189 0
-187 -188 0
-187 -189 0
-188 -189 0
176 177 178 179 180 181 182 183 184 185 186 187 188 189 0
-190 -191 0
-190 -192 0
-190 -193 0
-190 -194 0
-190 -195 0
-190 -196 0
-190 -197 0
-190 -198 0
-190 -199 0
-190 -200 0
-190 -201 0
-190 -202 0
-190 -203 0
-191 -192 0
-191 -193 0
-191 -194 0
-191 -195 0
-191 -196 0
-191 -197 0
-191 -198 0
-191 -199 0
-191 -200 0
-191 -201 0
-191 -202 0
-191 -203 0
-192 -193 0
-192 -194 0
-192 -195 0
-192 -196 0
-192 -197 0
-192 -198 0
-192 -199 0
-192 -200 0
-192 -201 0
-192 -202 0
-192 -203 0
-193 -194 0
-193 -195 0
-193 -196 0
-193 -197 0
-193 -198 0
-193 -199 0
-193 -200 0
-193 -201 0
-193 -202 0
-193 -203 0
-194 -195 0
-194 -196 0
-194 -197 0
-194 -198 0
-194 -199 0
-194 -200 0
-194 -201 0
-194 -202 0
-194 -203 0
-195 -196 0
-195 -197 0
-195 -198 0
-195 -199 0
-195 -200 0
-195 -201 0
-195 -202 0
-195 -203 0
-196 -197 0
-196 -198 0
-196 -199 0
-196 -200 0
-196 -201 0
-196 -202 0
-196 -203 0
-197 -198 0
-197 -199 0
-197 -200 0
-197 -201 0
-197 -202 0
-197 -203 0
-198 -199 0
-198 -200 0
-198 -201 0
-198 -202 0
-198 -203 0
-199 -200 0
-199 -201 0
-199 -202 0
-199 -203 0
-200 -201 0
-200 -202 0
-200 -203 0
-201 -202 0
-201 -203 0
-202 -203 0
190 191 192 193 194 195 196 197 198 199 200 201 202 203 0
-204 -205 0
-204 -206 0
-204 -207 0
-204 -208 0
-204 -209 0
-204 -210 0
-204 -211 0
-204 -212 0
-204 -213 0
-204 -214 0
-204 -215 0
-204 -216 0
-204 -217 0
-205 -206 0
-205 -207 0
-205 -208 0
-205 -209 0
-205 -210 0
-205 -211 0
-205 -212 0
-205 -213 0
-205 -214 0
-205 -215 0
-205 -216 0
-205 -217 0
-206 -207 0
-206 -208 0
-206 -209 0
-206 -210 0
-206 -211 0
-206 -212 0
-206 -213 0
-206 -214 0
-206 -215 0
-206 -216 0
-206 -217 0
-207 -208 0
-207 -209 0
-207 -210 0
-207 -211 0
-207 -212 0
-207 -213 0
-207 -214 0
-207 -215 0
-207 -216 0
-207 -217 0
-208 -209 0
-208 -210 0
-208 -211 0
-208 -212 0
-208 -213 0
-208 -214 0
-208 -215 0
-208 -216 0
-208 -217 0
-209 -210 0
-209 -211 0
-209 -212 0
-209 -213 0
-209 -214 0
-209 -215 0
-209 -216 0
-209 -217 0
-210 -211 0
-210 -212 0
-210 -213 0
-210 -214 0
-210 -215 0
-210 -216 0
-210 -217 0
-211 -212 0
-211 -213 0
-211 -214 0
-211 -215 0
-211 -216 0
-211 -217 0
-212 -213 0
-212 -214 0
-212 -215 0
-212 -216 0
-212 -217 0
-213 -214 0
-213 -215 0
-213 -216 0
-213 -217 0
-214 -215 0
-214 -216 0
-214 -217 0
-215 -216 0
-215 -217 0
-216 -217 0
204 205 206 207 208 209 210 211 212 213 214 215 216 217 0
-92 -106 0
-92 -120 0
-92 -134 0
-92 -148 0
-92 -162 0
-92 -176 0
-92 -190 0
-92 -204 0
-106 -120 0
-106 -134 0
-106 -148 0
-106 -162 0
-106 -176 0
-106 -190 0
-106 -204 0
-120 -134 0
-120 -148 0
-120 -162 0
-120 -176 0
-120 -190 0
-120 -204 0
-134 -148 0
-134 -162 0
-134 -176 0
-134 -190 0
-134 -204 0
-148 -162 0
-148 -176 0
-148 -190 0
-148 -204 0
-162 -176 0
-162 -190 0
-162 -204 0
-176 -190 0
-176 -204 0
-190 -204 0
-93 -107 0
-93 -121 0
-93 -135 0
-93 -149 0
-93 -163 0
-93 -177 0
-93 -191 0
-93 -205 0
-107 -121 0
-107 -135 0
-107 -149 0
-107 -163 0
-107 -177 0
-107 -191 0
-107 -205 0
-121 -135 0
-121 -149 0
-121 -163 0
-121 -177 0
-121 -191 0
-121 -205 0
-135 -149 0
-135 -163 0
-135 -177 0
-135 -191 0
-135 -205 0
-149 -163 0
-149 -177 0
-149 -191 0
-149 -205 0
-163 -177 0
-163 -191 0
-163 -205 0
-177 -191 0
-177 -205 0
-191 -205 0
-94 -108 0
-94 -122 0
-94 -136 0
-94 -150 0
-94 -164 0
-94 -178 0
-94 -192 0
-94 -206 0
-108 -122 0
-108 -136 0
-108 -150 0
-108 -164 0
-108 -178 0
-108 -192 0
-108 -206 0
-122 -136 0
-122 -150 0
-122 -164 0
-122 -178 0
-122 -192 0
-122 -206 0
-136 -150 0
-136 -164 0
-136 -178 0
-136 -192 0
-136 -206 0
-150 -164 0
-150 -178 0
-150 -192 0
-150 -206 0
-164 -178 0
-164 -192 0
-164 -206 0
-178 -192 0
-178 -206 0
-192 -206 0
-95 -109 0
-95 -123 0
-95 -137 0
-95 -151 0
-95 -165 0
-95 -179 0
-95 -193 0
-95 -207 0
-109 -123 0
-109 -137 0
-109 -151 0
-109 -165 0
-109 -179 0
-109 -193 0
-109 -207 0
-123 -137 0
-123 -151 0
-123 -165 0
-123 -179 0
-123 -193 0
-123 -207 0
-137 -151 0
-137 -165 0
-137 -179 0
-137 -193 0
-137 -207 0
-151 -165 0
-151 -179 0
-151 -193 0
-151 -207 0
-165 -179 0
-165 -193 0
-165 -207 0
-179 -193 0
-179 -207 0
-193 -207 0
-96 -110 0
-96 -124 0
-96 -138 0
-96 -152 0
-96 -166 0
-96 -180 0
-96 -194 0
-96 -208 0
-110 -124 0
-110 -138 0
-110 -152 0
-110 -166 0
-110 -180 0
-110 -194 0
-110 -208 0
-124 -138 0
-124 -152 0
-124 -166 0
-124 -180 0
-124 -194 0
-124 -208 0
-138 -152 0
-138 -166 0
-138 -180 0
-138 -194 0
-138 -208 0
-152 -166 0
-152 -180 0
-152 -194 0
-152 -208 0
-166 -180 0
-166 -194 0
-166 -208 0
-180 -194 0
-180 -208 0
-194 -208 0
-97 -111 0
-97 -125 0
-97 -139 0
-97 -153 0
-97 -167 0
-97 -181 0
-97 -195 0
-97 -209 0
-111 -125 0
-111 -139 0
-111 -153 0
-111 -167 0
-111 -181 0
-111 -195 0
-111 -209 0
-125 -139 0
-125 -153 0
-125 -167 0
-125 -181 0
-125 -195 0
-125 -209 0
-139 -153 0
-139 -167 0
-139 -181 0
-139 -195 0
-139 -209 0
-153 -167 0
-153 -181 0
-153 -195 0
-153 -209 0
-167 -181 0
-167 -195 0
-167 -209 0
-181 -195 0
-181 -209 0
-195 -209 0
-98 -112 0
-98 -126 0
-98 -140 0
-98 -154 0
-98 -168 0
-98 -182 0
-98 -196 0
-98 -210 0
-112 -126 0
-112 -140 0
-112 -154 0
-112 -168 0
-112 -182 0
-112 -196 0
-112 -210 0
-126 -140 0
-126 -154 0
-126 -168 0
-126 -182 0
-126 -196 0
-126 -210 0
-140 -154 0
-140 -168 0
-140 -182 0
-140 -196 0
-140 -210 0
-154 -168 0
-154 -182 0
-154 -196 0
-154 -210 0
-168 -182 0
-168 -196 0
-168 -210 0
-182 -196 0
-182 -210 0
-196 -210 0
-99 -113 0
-99 -127 0
-99 -141 0
-99 -155 0
-99 -169 0
-99 -183 0
-99 -197 0
-99 -211 0
-113 -127 0
-113 -141 0
-113 -155 0
-113 -169 0
-113 -183 0
-113 -197 0
-113 -211 0
-127 -141 0
-127 -155 0
-127 -169 0
-127 -183 0
-127 -197 0
-127 -211 0
-141 -155 0
-141 -169 0
-141 -183 0
-141 -197 0
-141 -211 0
-155 -169 0
-155 -183 0
-155 -197 0
-155 -211 0
-169 -183 0
-169 -197 0
-169 -211 0
-183 -197 0
-183 -211 0
-197 -211 0
-100 -114 0
-100 -128 0
-100 -142 0
-100 -156 0
-100 -170 0
-100 -184 0
-100 -198 0
-100 -212 0
-114 -128 0
-114 -142 0
-114 -156 0
-114 -170 0
-114 -184 0
-114 -198 0
-114 -212 0
-128 -142 0
-128 -156 0
-128 -170 0
-128 -184 0
-128 -198 0
-128 -212 0
-142 -156 0
-142 -170 0
-142 -184 0
-142 -198 0
-142 -212 0
-156 -170 0
-156 -184 0
-156 -198 0
-156 -212 0
-170 -184 0
-170 -198 0
-170 -212 0
-184 -198 0
-184 -212 0
-198 -212 0
-101 -115 0
-101 -129 0
-101 -143 0
-101 -157 0
-101 -171 0
-101 -185 0
-101 -199 0
-101 -213 0
-115 -129 0
-115 -143 0
-115 -157 0
-115 -171 0
-115 -185 0
-115 -199 0
-115 -213 0
-129 -143 0
-129 -157 0
-129 -171 0
-129 -185 0
-129 -199 0
-129 -213 0
-143 -157 0
-143 -171 0
-143 -185 0
-143 -199 0
-143 -213 0
-157 -171 0
-157 -185 0
-157 -199 0
-157 -213 0
-171 -185 0
-171 -199 0
-171 -213 0
-185 -199 0
-185 -213 0
-199 -213 0
-102 -116 0
-102 -130 0
-102 -144 0
-102 -158 0
-102 -172 0
-102 -186 0
-102 -200 0
-102 -214 0
-116 -130 0
-116 -144 0
-116 -158 0
-116 -172 0
-116 -186 0
-116 -200 0
-116 -214 0
-130 -144 0
-130 -158 0
-130 -172 0
-130 -186 0
-130 -200 0
-130 -214 0
-144 -158 0
-144 -172 0
-144 -186 0
-144 -200 0
-144 -214 0
-158 -172 0
-158 -186 0
-158 -200 0
-158 -214 0
-172 -186 0
-172 -200 0
-172 -214 0
-186 -200 0
-186 -214 0
-200 -214 0
-103 -117 0
-103 -131 0
-103 -145 0
-103 -159 0
-103 -173 0
-103 -187 0
-103 -201 0
-103 -215 0
-117 -131 0
-117 -145 0
-117 -159 0
-117 -173 0
-117 -187 0
-117 -201 0
-117 -215 0
-131 -145 0
-131 -159 0
-131 -173 0
-131 -187 0
-131 -201 0
-131 -215 0
-145 -159 0
-145 -173 0
-145 -187 0
-145 -201 0
-145 -215 0
-159 -173 0
-159 -187 0
-159 -201 0
-159 -215 0
-173 -187 0
-173 -201 0
-173 -215 0
-187 -201 0
-187 -215 0
-201 -215 0
-104 -118 0
-104 -132 0
-104 -146 0
-104 -160 0
-104 -174 0
-104 -188 0
-104 -202 0
-104 -216 0
-118 -132 0
-118 -146 0
-118 -160 0
-118 -174 0
-118 -188 0
-118 -202 0
-118 -216 0
-132 -146 0
-132 -160 0
-132 -174 0
-132 -188 0
-132 -202 0
-132 -216 0
-146 -160 0
-146 -174 0
-146 -188 0
-146 -202 0
-146 -216 0
-160 -174 0
-160 -188 0
-160 -202 0
-160 -216 0
-174 -188 0
-174 -202 0
-174 -216 0
-188 -202 0
-188 -216 0
-202 -216 0
-105 -119 0
-105 -133 0
-105 -147 0
-105 -161 0
-105 -175 0
-105 -189 0
-105 -203 0
-105 -217 0
-119 -133 0
-119 -147 0
-119 -161 0
-119 -175 0
-119 -189 0
-119 -203 0
-119 -217 0
-133 -147 0
-133 -161 0
-133 -175 0
-133 -189 0
-133 -203 0
-133 -217 0
-147 -161 0
-147 -175 0
-147 -189 0
-147 -203 0
-147 -217 0
-161 -175 0
-161 -189 0
-161 -203 0
-161 -217 0
-175 -189 0
-175 -203 0
-175 -217 0
-189 -203 0
-189 -217 0
-203 -217 0
1 -92 -107 0
1 -92 -121 0
1 -92 -135 0
1 -92 -149 0
1 -92 -163 0
1 -92 -177 0
1 -92 -191 0
1 -92 -205 0
1 -106 -93 0
1 -106 -121 0
1 -106 -135 0
1 -106 -149 0
1 -106 -163 0
1 -106 -177 0
1 -106 -191 0
1 -106 -205 0
1 -120 -93 0
1 -120 -107 0
1 -120 -135 0
1 -120 -149 0
1 -120 -163 0
1 -120 -177 0
1 -120 -191 0
1 -120 -205 0
1 -134 -93 0
1 -134 -107 0
1 -134 -121 0
1 -134 -149 0
1 -134 -163 0
1 -134 -177 0
1 -134 -191 0
1 -134 -205 0
1 -148 -93 0
1 -148 -107 0
1 -148 -121 0
1 -148 -135 0
1 -148 -163 0
1 -148 -177 0
1 -148 -191 0
1 -148 -205 0
1 -162 -93 0
1 -162 -107 0
1 -162 -121 0
1 -162 -135 0
1 -162 -149 0
1 -162 -177 0
1 -162 -191 0
1 -162 -205 0
1 -176 -93 0
1 -176 -107 0
1 -176 -121 0
1 -176 -135 0
1 -176 -149 0
1 -176 -163 0
1 -176 -191 0
1 -176 -205 0
1 -190 -93 0
1 -190 -107 0
1 -190 -121 0
1 -190 -135 0
1 -190 -149 0
1 -190 -163 0
1 -190 -177 0
1 -190 -205 0
1 -204 -93 0
1 -204 -107 0
1 -204 -121 0
1 -204 -135 0
1 -204 -149 0
1 -204 -163 0
1 -204 -177 0
1 -204 -191 0
2 -92 -108 0
2 -92 -122 0
2 -92 -136 0
2 -92 -150 0
2 -92 -164 0
2 -92 -178 0
2 -92 -192 0
2 -92 -206 0
2 -106 -94 0
2 -106 -122 0
2 -106 -136 0
2 -106 -150 0
2 -106 -164 0
2 -106 -178 0
2 -106 -192 0
2 -106 -206 0
2 -120 -94 0
2 -120 -108 0
2 -120 -136 0
2 -120 -150 0
2 -120 -164 0
2 -120 -178 0
2 -120 -192 0
2 -120 -206 0
2 -134 -94 0
2 -134 -108 0
2 -134 -122 0
2 -134 -150 0
2 -134 -164 0
2 -134 -178 0
2 -134 -192 0
2 -134 -206 0
2 -148 -94 0
2 -148 -108 0
2 -148 -122 0
2 -148 -136 0
2 -148 -164 0
2 -148 -178 0
2 -148 -192 0
2 -148 -206 0
2 -162 -94 0
2 -162 -108 0
2 -162 -122 0
2 -162 -136 0
2 -162 -150 0
2 -162 -178 0
2 -162 -192 0
2 -162 -206 0
2 -176 -94 0
2 -176 -108 0
2 -176 -122 0
2 -176 -136 0
2 -176 -150 0
2 -176 -164 0
2 -176 -192 0
2 -176 -206 0
2 -190 -94 0
2 -190 -108 0
2 -190 -122 0
2 -190 -136 0
2 -190 -150 0
2 -190 -164 0
2 -190 -178 0
2 -190 -206 0
2 -204 -94 0
2 -204 -108 0
2 -204 -122 0
2 -204 -136 0
2 -204 -150 0
2 -204 -164 0
2 -204 -178 0
2 -204 -192 0
3 -92 -109 0
3 -92 -123 0
3 -92 -137 0
3 -92 -151 0
3 -92 -165 0
3 -92 -179 0
3 -92 -193 0
3 -92 -207 0
3 -106 -95 0
3 -106 -123 0
3 -106 -137 0
3 -106 -151 0
3 -106 -165 0
3 -106 -179 0
3 -106 -193 0
3 -106 -207 0
3 -120 -95 0
3 -120 -109 0
3 -120 -137 0
3 -120 -151 0
3 -120 -165 0
3 -120 -179 0
3 -120 -193 0
3 -120 -207 0
3 -134 -95 0
3 -134 -109 0
3 -134 -123 0
3 -134 -151 0
3 -134 -165 0
3 -134 -179 0
3 -134 -193 0
3 -134 -207 0
3 -148 -95 0
3 -148 -109 0
3 -148 -123 0
3 -148 -137 0
3 -148 -165 0
3 -148 -179 0
3 -148 -193 0
3 -148 -207 0
3 -162 -95 0
3 -162 -109 0
3 -162 -123 0
3 -162 -137 0
3 -162 -151 0
3 -162 -179 0
3 -162 -193 0
3 -162 -207 0
3 -176 -95 0
3 -176 -109 0
3 -176 -123 0
3 -176 -137 0
3 -176 -151 0
3 -176 -165 0
3 -176 -193 0
3 -176 -207 0
3 -190 -95 0
3 -190 -109 0
3 -190 -123 0
3 -190 -137 0
3 -190 -151 0
3 -190 -165 0
3 -190 -179 0
3 -190 -207 0
3 -204 -95 0
3 -204 -109 0
3 -204 -123 0
3 -204 -137 0
3 -204 -151 0
3 -204 -165 0
3 -204 -179 0
3 -204 -193 0
4 -92 -110 0
4 -92 -124 0
4 -92 -138 0
4 -92 -152 0
4 -92 -166 0
4 -92 -180 0
4 -92 -194 0
4 -92 -208 0
4 -106 -96 0
4 -106 -124 0
4 -106 -138 0
4 -106 -152 0
4 -106 -166 0
4 -106 -180 0
4 -106 -194 0
4 -106 -208 0
4 -120 -96 0
4 -120 -110 0
4 -120 -138 0
4 -120 -152 0
4 -120 -166 0
4 -120 -180 0
4 -120 -194 0
4 -120 -208 0
4 -134 -96 0
4 -134 -110 0
4 -134 -124 0
4 -134 -152 0
4 -134 -166 0
4 -134 -180 0
4 -134 -194 0
4 -134 -208 0
4 -148 -96 0
4 -148 -110 0
4 -148 -124 0
4 -148 -138 0
4 -148 -166 0
4 -148 -180 0
4 -148 -194 0
4 -148 -208 0
4 -162 -96 0
4 -162 -110 0
4 -162 -124 0
4 -162 -138 0
4 -162 -152 0
4 -162 -180 0
4 -162 -194 0
4 -162 -208 0
4 -176 -96 0
4 -176 -110 0
4 -176 -124 0
4 -176 -138 0
4 -176 -152 0
4 -176 -166 0
4 -176 -194 0
4 -176 -208 0
4 -190 -96 0
4 -190 -110 0
4 -190 -124 0
4 -190 -138 0
4 -190 -152 0
4 -190 -166 0
4 -190 -180 0
4 -190 -208 0
4 -204 -96 0
4 -204 -110 0
4 -204 -124 0
4 -204 -138 0
4 -204 -152 0
4 -204 -166 0
4 -204 -180 0
4 -204 -194 0
5 -92 -111 0
5 -92 -125 0
5 -92 -139 0
5 -92 -153 0
5 -92 -167 0
5 -92 -181 0
5 -92 -195 0
5 -92 -209 0
5 -106 -97 0
5 -106 -125 0
5 -106 -139 0
5 -106 -153 0
5 -106 -167 0
5 -106 -181 0
5 -106 -195 0
5 -106 -209 0
5 -120 -97 0
5 -120 -111 0
5 -120 -139 0
5 -120 -153 0
5 -120 -167 0
5 -120 -181 0
5 -120 -195 0
5 -120 -209 0
5 -134 -97 0
5 -134 -111 0
5 -134 -125 0
5 -134 -153 0
5 -134 -167 0
5 -134 -181 0
5 -134 -195 0
5 -134 -209 0
5 -148 -97 0
5 -148 -111 0
5 -148 -125 0
5 -148 -139 0
5 -148 -167 0
5 -148 -181 0
5 -148 -195 0
5 -148 -209 0
5 -162 -97 0
5 -162 -111 0
5 -162 -125 0
5 -162 -139 0
5 -162 -153 0
5 -162 -181 0
5 -162 -195 0
5 -162 -209 0
5 -176 -97 0
5 -176 -111 0
5 -176 -125 0
5 -176 -139 0
5 -176 -153 0
5 -176 -167 0
5 -176 -195 0
5 -176 -209 0
5 -190 -97 0
5 -190 -111 0
5 -190 -125 0
5 -190 -139 0
5 -190 -153 0
5 -190 -167 0
5 -190 -181 0
5 -190 -209 0
5 -204 -97 0
5 -204 -111 0
5 -204 -125 0
5 -204 -139 0
5 -204 -153 0
5 -204 -167 0
5 -204 -181 0
5 -204 -195 0
6 -92 -112 0
6 -92 -126 0
6 -92 -140 0
6 -92 -154 0
6 -92 -168 0
6 -92 -182 0
6 -92 -196 0
6 -92 -210 0
6 -106 -98 0
6 -106 -126 0
6 -106 -140 0
6 -106 -154 0
6 -106 -168 0
6 -106 -182 0
6 -106 -196 0
6 -106 -210 0
6 -120 -98 0
6 -120 -112 0
6 -120 -140 0
6 -120 -154 0
6 -120 -168 0
6 -120 -182 0
6 -120 -196 0
6 -120 -210 0
6 -134 -98 0
6 -134 -112 0
6 -134 -126 0
6 -134 -154 0
6 -134 -168 0
6 -134 -182 0
6 -134 -196 0
6 -134 -210 0
6 -148 -98 0
6 -148 -112 0
6 -148 -126 0
6 -148 -140 0
6 -148 -168 0
6 -148 -182 0
6 -148 -196 0
6 -148 -210 0
6 -162 -98 0
6 -162 -112 0
6 -162 -126 0
6 -162 -140 0
6 -162 -154 0
6 -162 -182 0
6 -162 -196 0
6 -162 -210 0
6 -176 -98 0
6 -176 -112 0
6 -176 -126 0
6 -176 -140 0
6 -176 -154 0
6 -176 -168 0
6 -176 -196 0
6 -176 -210 0
6 -190 -98 0
6 -190 -112 0
6 -190 -126 0
6 -190 -140 0
6 -190 -154 0
6 -190 -168 0
6 -190 -182 0
6 -190 -210 0
6 -204 -98 0
6 -204 -112 0
6 -204 -126 0
6 -204 -140 0
6 -204 -154 0
6 -204 -168 0
6 -204 -182 0
6 -204 -196 0
7 -92 -113 0
7 -92 -127 0
7 -92 -141 0
7 -92 -155 0
7 -92 -169 0
7 -92 -183 0
7 -92 -197 0
7 -92 -211 0
7 -106 -99 0
7 -106 -127 0
7 -106 -141 0
7 -106 -155 0
7 -106 -169 0
7 -106 -183 0
7 -106 -197 0
7 -106 -211 0
7 -120 -99 0
7 -120 -113 0
7 -120 -141 0
7 -120 -155 0
7 -120 -169 0
7 -120 -183 0
7 -120 -197 0
7 -120 -211 0
7 -134 -99 0
7 -134 -113 0
7 -134 -127 0
7 -134 -155 0
7 -134 -169 0
7 -134 -183 0
7 -134 -197 0
7 -134 -211 0
7 -148 -99 0
7 -148 -113 0
7 -148 -127 0
7 -148 -141 0
7 -148 -169 0
7 -148 -183 0
7 -148 -197 0
7 -148 -211 0
7 -162 -99 0
7 -162 -113 0
7 -162 -127 0
7 -162 -141 0
7 -162 -155 0
7 -162 -183 0
7 -162 -197 0
7 -162 -211 0
7 -176 -99 0
7 -176 -113 0
7 -176 -127 0
7 -176 -141 0
7 -176 -155 0
7 -176 -169 0
7 -176 -197 0
7 -176 -211 0
7 -190 -99 0
7 -190 -113 0
7 -190 -127 0
7 -190 -141 0
7 -190 -155 0
7 -190 -169 0
7 -190 -183 0
7 -190 -211 0
7 -204 -99 0
7 -204 -113 0
7 -204 -127 0
7 -204 -141 0
7 -204 -155 0
7 -204 -169 0
7 -204 -183 0
7 -204 -197 0
8 -92 -114 0
8 -92 -128 0
8 -92 -142 0
8 -92 -156 0
8 -92 -170 0
8 -92 -184 0
8 -92 -198 0
8 -92 -212 0
8 -106 -100 0
8 -106 -128 0
8 -106 -142 0
8 -106 -156 0
8 -106 -170 0
8 -106 -184 0
8 -106 -198 0
8 -106 -212 0
8 -120 -100 0
8 -120 -114 0
8 -120 -142 0
8 -120 -156 0
8 -120 -170 0
8 -120 -184 0
8 -120 -198 0
8 -120 -212 0
8 -134 -100 0
8 -134 -114 0
8 -134 -128 0
8 -134 -156 0
8 -134 -170 0
8 -134 -184 0
8 -134 -198 0
8 -134 -212 0
8 -148 -100 0
8 -148 -114 0
8 -148 -128 0
8 -148 -142 0
8 -148 -170 0
8 -148 -184 0
8 -148 -198 0
8 -148 -212 0
8 -162 -100 0
8 -162 -114 0
8 -162 -128 0
8 -162 -142 0
8 -162 -156 0
8 -162 -184 0
8 -162 -198 0
8 -162 -212 0
8 -176 -100 0
8 -176 -114 0
8 -176 -128 0
8 -176 -142 0
8 -176 -156 0
8 -176 -170 0
8 -176 -198 0
8 -176 -212 0
8 -190 -100 0
8 -190 -114 0
8 -190 -128 0
8 -190 -142 0
8 -190 -156 0
8 -190 -170 0
8 -190 -184 0
8 -190 -212 0
8 -204 -100 0
8 -204 -114 0
8 -204 -128 0
8 -204 -142 0
8 -204 -156 0
8 -204 -170 0
8 -204 -184 0
8 -204 -198 0
9 -92 -115 0
9 -92 -129 0
9 -92 -143 0
9 -92 -157 0
9 -92 -171 0
9 -92 -185 0
9 -92 -199 0
9 -92 -213 0
9 -106 -101 0
9 -106 -129 0
9 -106 -143 0
9 -106 -157 0
9 -106 -171 0
9 -106 -185 0
9 -106 -199 0
9 -106 -213 0
9 -120 -101 0
9 -120 -115 0
9 -120 -143 0
9 -120 -157 0
9 -120 -171 0
9 -120 -185 0
9 -120 -199 0
9 -120 -213 0
9 -134 -101 0
9 -134 -115 0
9 -134 -129 0
9 -134 -157 0
9 -134 -171 0
9 -134 -185 0
9 -134 -199 0
9 -134 -213 0
9 -148 -101 0
9 -148 -115 0
9 -148 -129 0
9 -148 -143 0
9 -148 -171 0
9 -148 -185 0
9 -148 -199 0
9 -148 -213 0
9 -162 -101 0
9 -162 -115 0
9 -162 -129 0
9 -162 -143 0
9 -162 -157 0
9 -162 -185 0
9 -162 -199 0
9 -162 -213 0
9 -176 -101 0
9 -176 -115 0
9 -176 -129 0
9 -176 -143 0
9 -176 -157 0
9 -176 -171 0
9 -176 -199 0
9 -176 -213 0
9 -190 -101 0
9 -190 -115 0
9 -190 -129 0
9 -190 -143 0
9 -190 -157 0
9 -190 -171 0
9 -190 -185 0
9 -190 -213 0
9 -204 -101 0
9 -204 -115 0
9 -204 -129 0
9 -204 -143 0
9 -204 -157 0
9 -204 -171 0
9 -204 -185 0
9 -204 -199 0
10 -92 -116 0
10 -92 -130 0
10 -92 -144 0
10 -92 -158 0
10 -92 -172 0
10 -92 -186 0
10 -92 -200 0
10 -92 -214 0
10 -106 -102 0
10 -106 -130 0
10 -106 -144 0
10 -106 -158 0
10 -106 -172 0
10 -106 -186 0
10 -106 -200 0
10 -106 -214 0
10 -120 -102 0
10 -120 -116 0
10 -120 -144 0
10 -120 -158 0
10 -120 -172 0
10 -120 -186 0
10 -120 -200 0
10 -120 -214 0
10 -134 -102 0
10 -134 -116 0
10 -134 -130 0
10 -134 -158 0
10 -134 -172 0
10 -134 -186 0
10 -134 -200 0
10 -134 -214 0
10 -148 -102 0
10 -148 -116 0
10 -148 -130 0
10 -148 -144 0
10 -148 -172 0
10 -148 -186 0
10 -148 -200 0
10 -148 -214 0
10 -162 -102 0
10 -162 -116 0
10 -162 -130 0
10 -162 -144 0
10 -162 -158 0
10 -162 -186 0
10 -162 -200 0
10 -162 -214 0
10 -176 -102 0
10 -176 -116 0
10 -176 -130 0
10 -176 -144 0
10 -176 -158 0
10 -176 -172 0
10 -176 -200 0
10 -176 -214 0
10 -190 -102 0
10 -190 -116 0
10 -190 -130 0
10 -190 -144 0
10 -190 -158 0
10 -190 -172 0
10 -190 -186 0
10 -190 -214 0
10 -204 -102 0
10 -204 -116 0
10 -204 -130 0
10 -204 -144 0
10 -204 -158 0
10 -204 -172 0
10 -204 -186 0
10 -204 -200 0
11 -92 -117 0
11 -92 -131 0
11 -92 -145 0
11 -92 -159 0
11 -92 -173 0
11 -92 -187 0
11 -92 -201 0
11 -92 -215 0
11 -106 -103 0
11 -106 -131 0
11 -106 -145 0
11 -106 -159 0
11 -106 -173 0
11 -106 -187 0
11 -106 -201 0
11 -106 -215 0
11 -120 -103 0
11 -120 -117 0
11 -120 -145 0
11 -120 -159 0
11 -120 -173 0
11 -120 -187 0
11 -120 -201 0
11 -120 -215 0
11 -134 -103 0
11 -134 -117 0
11 -134 -131 0
11 -134 -159 0
11 -134 -173 0
11 -134 -187 0
11 -134 -201 0
11 -134 -215 0
11 -148 -103 0
11 -148 -117 0
11 -148 -131 0
11 -148 -145 0
11 -148 -173 0
11 -148 -187 0
11 -148 -201 0
11 -148 -215 0
11 -162 -103 0
11 -162 -117 0
11 -162 -131 0
11 -162 -145 0
11 -162 -159 0
11 -162 -187 0
11 -162 -201 0
11 -162 -215 0
11 -176 -103 0
11 -176 -117 0
11 -176 -131 0
11 -176 -145 0
11 -176 -159 0
11 -176 -173 0
11 -176 -201 0
11 -176 -215 0
11 -190 -103 0
11 -190 -117 0
11 -190 -131 0
11 -190 -145 0
11 -190 -159 0
11 -190 -173 0
11 -190 -187 0
11 -190 -215 0
11 -204 -103 0
11 -204 -117 0
11 -204 -131 0
11 -204 -145 0
11 -204 -159 0
11 -204 -173 0
11 -204 -187 0
11 -204 -201 0
12 -92 -118 0
12 -92 -132 0
12 -92 -146 0
12 -92 -160 0
12 -92 -174 0
12 -92 -188 0
12 -92 -202 0
12 -92 -216 0
12 -106 -104 0
12 -106 -132 0
12 -106 -146 0
12 -106 -160 0
12 -106 -174 0
12 -106 -188 0
12 -106 -202 0
12 -106 -216 0
12 -120 -104 0
12 -120 -118 0
12 -120 -146 0
12 -120 -160 0
12 -120 -174 0
12 -120 -188 0
12 -120 -202 0
12 -120 -216 0
12 -134 -104 0
12 -134 -118 0
12 -134 -132 0
12 -134 -160 0
12 -134 -174 0
12 -134 -188 0
12 -134 -202 0
12 -134 -216 0
12 -148 -104 0
12 -148 -118 0
12 -148 -132 0
12 -148 -146 0
12 -148 -174 0
12 -148 -188 0
12 -148 -202 0
12 -148 -216 0
12 -162 -104 0
12 -162 -118 0
12 -162 -132 0
12 -162 -146 0
12 -162 -160 0
12 -162 -188 0
12 -162 -202 0
12 -162 -216 0
12 -176 -104 0
12 -176 -118 0
12 -176 -132 0
12 -176 -146 0
12 -176 -160 0
12 -176 -174 0
12 -176 -202 0
12 -176 -216 0
12 -190 -104 0
12 -190 -118 0
12 -190 -132 0
12 -190 -146 0
12 -190 -160 0
12 -190 -174 0
12 -190 -188 0
12 -190 -216 0
12 -204 -104 0
12 -204 -118 0
12 -204 -132 0
12 -204 -146 0
12 -204 -160 0
12 -204 -174 0
12 -204 -188 0
12 -204 -202 0
13 -92 -119 0
13 -92 -133 0
13 -92 -147 0
13 -92 -161 0
13 -92 -175 0
13 -92 -189 0
13 -92 -203 0
13 -92 -217 0
13 -106 -105 0
13 -106 -133 0
13 -106 -147 0
13 -106 -161 0
13 -106 -175 0
13 -106 -189 0
13 -106 -203 0
13 -106 -217 0
13 -120 -105 0
13 -120 -119 0
13 -120 -147 0
13 -120 -161 0
13 -120 -175 0
13 -120 -189 0
13 -120 -203 0
13 -120 -217 0
13 -134 -105 0
13 -134 -119 0
13 -134 -133 0
13 -134 -161 0
13 -134 -175 0
13 -134 -189 0
13 -134 -203 0
13 -134 -217 0
13 -148 -105 0
13 -148 -119 0
13 -148 -133 0
13 -148 -147 0
13 -148 -175 0
13 -148 -189 0
13 -148 -203 0
13 -148 -217 0
13 -162 -105 0
13 -162 -119 0
13 -162 -133 0
13 -162 -147 0
13 -162 -161 0
13 -162 -189 0
13 -162 -203 0
13 -162 -217 0
13 -176 -105 0
13 -176 -119 0
13 -176 -133 0
13 -176 -147 0
13 -176 -161 0
13 -176 -175 0
13 -176 -203 0
13 -176 -217 0
13 -190 -105 0
13 -190 -119 0
13 -190 -133 0
13 -190 -147 0
13 -190 -161 0
13 -190 -175 0
13 -190 -189 0
13 -190 -217 0
13 -204 -105 0
13 -204 -119 0
13 -204 -133 0
13 -204 -147 0
13 -204 -161 0
13 -204 -175 0
13 -204 -189 0
13 -204 -203 0
14 -93 -108 0
14 -93 -122 0
14 -93 -136 0
14 -93 -150 0
14 -93 -164 0
14 -93 -178 0
14 -93 -192 0
14 -93 -206 0
14 -107 -94 0
14 -107 -122 0
14 -107 -136 0
14 -107 -150 0
14 -107 -164 0
14 -107 -178 0
14 -107 -192 0
14 -107 -206 0
14 -121 -94 0
14 -121 -108 0
14 -121 -136 0
14 -121 -150 0
14 -121 -164 0
14 -121 -178 0
14 -121 -192 0
14 -121 -206 0
14 -135 -94 0
14 -135 -108 0
14 -135 -122 0
14 -135 -150 0
14 -135 -164 0
14 -135 -178 0
14 -135 -192 0
14 -135 -206 0
14 -149 -94 0
14 -149 -108 0
14 -149 -122 0
14 -149 -136 0
14 -149 -164 0
14 -149 -178 0
14 -149 -192 0
14 -149 -206 0
14 -163 -94 0
14 -163 -108 0
14 -163 -122 0
14 -163 -136 0
14 -163 -150 0
14 -163 -178 0
14 -163 -192 0
14 -163 -206 0
14 -177 -94 0
14 -177 -108 0
14 -177 -122 0
14 -177 -136 0
14 -177 -150 0
14 -177 -164 0
14 -177 -192 0
14 -177 -206 0
14 -191 -94 0
14 -191 -108 0
14 -191 -122 0
14 -191 -136 0
14 -191 -150 0
14 -191 -164 0
14 -191 -178 0
14 -191 -206 0
14 -205 -94 0
14 -205 -108 0
14 -205 -122 0
14 -205 -136 0
14 -205 -150 0
14 -205 -164 0
14 -205 -178 0
14 -205 -192 0
15 -93 -109 0
15 -93 -123 0
15 -93 -137 0
15 -93 -151 0
15 -93 -165 0
15 -93 -179 0
15 -93 -193 0
15 -93 -207 0
15 -107 -95 0
15 -107 -123 0
15 -107 -137 0
15 -107 -151 0
15 -107 -165 0
15 -107 -179 0
15 -107 -193 0
15 -107 -207 0
15 -121 -95 0
15 -121 -109 0
15 -121 -137 0
15 -121 -151 0
15 -121 -165 0
15 -121 -179 0
15 -121 -193 0
15 -121 -207 0
15 -135 -95 0
15 -135 -109 0
15 -135 -123 0
15 -135 -151 0
15 -135 -165 0
15 -135 -179 0
15 -135 -193 0
15 -135 -207 0
15 -149 -95 0
15 -149 -109 0
15 -149 -123 0
15 -149 -137 0
15 -149 -165 0
15 -149 -179 0
15 -149 -193 0
15 -149 -207 0
15 -163 -95 0
15 -163 -109 0
15 -163 -123 0
15 -163 -137 0
15 -163 -151 0
15 -163 -179 0
15 -163 -193 0
15 -163 -207 0
15 -177 -95 0
15 -177 -109 0
15 -177 -123 0
15 -177 -137 0
15 -177 -151 0
15 -177 -165 0
15 -177 -193 0
15 -177 -207 0
15 -191 -95 0
15 -191 -109 0
15 -191 -123 0
15 -191 -137 0
15 -191 -151 0
15 -191 -165 0
15 -191 -179 0
15 -191 -207 0
15 -205 -95 0
15 -205 -109 0
15 -205 -123 0
15 -205 -137 0
15 -205 -151 0
15 -205 -165 0
15 -205 -179 0
15 -205 -193 0
16 -93 -110 0
16 -93 -124 0
16 -93 -138 0
16 -93 -152 0
16 -93 -166 0
16 -93 -180 0
16 -93 -194 0
16 -93 -208 0
16 -107 -96 0
16 -107 -124 0
16 -107 -138 0
16 -107 -152 0
16 -107 -166 0
16 -107 -180 0
16 -107 -194 0
16 -107 -208 0
16 -121 -96 0
16 -121 -110 0
16 -121 -138 0
16 -121 -152 0
16 -121 -166 0
16 -121 -180 0
16 -121 -194 0
16 -121 -208 0
16 -135 -96 0
16 -135 -110 0
16 -135 -124 0
16 -135 -152 0
16 -135 -166 0
16 -135 -180 0
16 -135 -194 0
16 -135 -208 0
16 -149 -96 0
16 -149 -110 0
16 -149 -124 0
16 -149 -138 0
16 -149 -166 0
16 -149 -180 0
16 -149 -194 0
16 -149 -208 0
16 -163 -96 0
16 -163 -110 0
16 -163 -124 0
16 -163 -138 0
16 -163 -152 0
16 -163 -180 0
16 -163 -194 0
16 -163 -208 0
16 -177 -96 0
16 -177 -110 0
16 -177 -124 0
16 -177 -138 0
16 -177 -152 0
16 -177 -166 0
16 -177 -194 0
16 -177 -208 0
16 -191 -96 0
16 -191 -110 0
16 -191 -124 0
16 -191 -138 0
16 -191 -152 0
16 -191 -166 0
16 -191 -180 0
16 -191 -208 0
16 -205 -96 0
16 -205 -110 0
16 -205 -124 0
16 -205 -138 0
16 -205 -152 0
16 -205 -166 0
16 -205 -180 0
16 -205 -194 0
17 -93 -111 0
17 -93 -125 0
17 -93 -139 0
17 -93 -153 0
17 -93 -167 0
17 -93 -181 0
17 -93 -195 0
17 -93 -209 0
17 -107 -97 0
17 -107 -125 0
17 -107 -139 0
17 -107 -153 0
17 -107 -167 0
17 -107 -181 0
17 -107 -195 0
17 -107 -209 0
17 -121 -97 0
17 -121 -111 0
17 -121 -139 0
17 -121 -153 0
17 -121 -167 0
17 -121 -181 0
17 -121 -195 0
17 -121 -209 0
17 -135 -97 0
17 -135 -111 0
17 -135 -125 0
17 -135 -153 0
17 -135 -167 0
17 -135 -181 0
17 -135 -195 0
17 -135 -209 0
17 -149 -97 0
17 -149 -111 0
17 -149 -125 0
17 -149 -139 0
17 -149 -167 0
17 -149 -181 0
17 -149 -195 0
17 -149 -209 0
17 -163 -97 0
17 -163 -111 0
17 -163 -125 0
17 -163 -139 0
17 -163 -153 0
17 -163 -181 0
17 -163 -195 0
17 -163 -209 0
17 -177 -97 0
17 -177 -111 0
17 -177 -125 0
17 -177 -139 0
17 -177 -153 0
17 -177 -167 0
17 -177 -195 0
17 -177 -209 0
17 -191 -97 0
17 -191 -111 0
17 -191 -125 0
17 -191 -139 0
17 -191 -153 0
17 -191 -167 0
17 -191 -181 0
17 -191 -209 0
17 -205 -97 0
17 -205 -111 0
17 -205 -125 0
17 -205 -139 0
17 -205 -153 0
17 -205 -167 0
17 -205 -181 0
17 -205 -195 0
18 -93 -112 0
18 -93 -126 0
18 -93 -140 0
18 -93 -154 0
18 -93 -168 0
18 -93 -182 0
18 -93 -196 0
18 -93 -210 0
18 -107 -98 0
18 -107 -126 0
18 -107 -140 0
18 -107 -154 0
18 -107 -168 0
18 -107 -182 0
18 -107 -196 0
18 -107 -210 0
18 -121 -98 0
18 -121 -112 0
18 -121 -140 0
18 -121 -154 0
18 -121 -168 0
18 -121 -182 0
18 -121 -196 0
18 -121 -210 0
18 -135 -98 0
18 -135 -112 0
18 -135 -126 0
18 -135 -154 0
18 -135 -168 0
18 -135 -182 0
18 -135 -196 0
18 -135 -210 0
18 -149 -98 0
18 -149 -112 0
18 -149 -126 0
18 -149 -140 0
18 -149 -168 0
18 -149 -182 0
18 -149 -196 0
18 -149 -210 0
18 -163 -98 0
18 -163 -112 0
18 -163 -126 0
18 -163 -140 0
18 -163 -154 0
18 -163 -182 0
18 -163 -196 0
18 -163 -210 0
18 -177 -98 0
18 -177 -112 0
18 -177 -126 0
18 -177 -140 0
18 -177 -154 0
18 -177 -168 0
18 -177 -196 0
18 -177 -210 0
18 -191 -98 0
18 -191 -112 0
18 -191 -126 0
18 -191 -140 0
18 -191 -154 0
18 -191 -168 0
18 -191 -182 0
18 -191 -210 0
18 -205 -98 0
18 -205 -112 0
18 -205 -126 0
18 -205 -140 0
18 -205 -154 0
18 -205 -168 0
18 -205 -182 0
18 -205 -196 0
19 -93 -113 0
19 -93 -127 0
19 -93 -141 0
19 -93 -155 0
19 -93 -169 0
19 -93 -183 0
19 -93 -197 0
19 -93 -211 0
19 -107 -99 0
19 -107 -127 0
19 -107 -141 0
19 -107 -155 0
19 -107 -169 0
19 -107 -183 0
19 -107 -197 0
19 -107 -211 0
19 -121 -99 0
19 -121 -113 0
19 -121 -141 0
19 -121 -155 0
19 -121 -169 0
19 -121 -183 0
19 -121 -197 0
19 -121 -211 0
19 -135 -99 0
19 -135 -113 0
19 -135 -127 0
19 -135 -155 0
19 -135 -169 0
19 -135 -183 0
19 -135 -197 0
19 -135 -211 0
19 -149 -99 0
19 -149 -113 0
19 -149 -127 0
19 -149 -141 0
19 -149 -169 0
19 -149 -183 0
19 -149 -197 0
19 -149 -211 0
19 -163 -99 0
19 -163 -113 0
19 -163 -127 0
19 -163 -141 0
19 -163 -155 0
19 -163 -183 0
19 -163 -197 0
19 -163 -211 0
19 -177 -99 0
19 -177 -113 0
19 -177 -127 0
19 -177 -141 0
19 -177 -155 0
19 -177 -169 0
19 -177 -197 0
19 -177 -211 0
19 -191 -99 0
19 -191 -113 0
19 -191 -127 0
19 -191 -141 0
19 -191 -155 0
19 -191 -169 0
19 -191 -183 0
19 -191 -211 0
19 -205 -99 0
19 -205 -113 0
19 -205 -127 0
19 -205 -141 0
19 -205 -155 0
19 -205 -169 0
19 -205 -183 0
19 -205 -197 0
20 -93 -114 0
20 -93 -128 0
20 -93 -142 0
20 -93 -156 0
20 -93 -170 0
20 -93 -184 0
20 -93 -198 0
20 -93 -212 0
20 -107 -100 0
20 -107 -128 0
20 -107 -142 0
20 -107 -156 0
20 -107 -170 0
20 -107 -184 0
20 -107 -198 0
20 -107 -212 0
20 -121 -100 0
20 -121 -114 0
20 -121 -142 0
20 -121 -156 0
20 -121 -170 0
20 -121 -184 0
20 -121 -198 0
20 -121 -212 0
20 -135 -100 0
20 -135 -114 0
20 -135 -128 0
20 -135 -156 0
20 -135 -170 0
20 -135 -184 0
20 -135 -198 0
20 -135 -212 0
20 -149 -100 0
20 -149 -114 0
20 -149 -128 0
20 -149 -142 0
20 -149 -170 0
20 -149 -184 0
20 -149 -198 0
20 -149 -212 0
20 -163 -100 0
20 -163 -114 0
20 -163 -128 0
20 -163 -142 0
20 -163 -156 0
20 -163 -184 0
20 -163 -198 0
20 -163 -212 0
20 -177 -100 0
20 -177 -114 0
20 -177 -128 0
20 -177 -142 0
20 -177 -156 0
20 -177 -170 0
20 -177 -198 0
20 -177 -212 0
20 -191 -100 0
20 -191 -114 0
20 -191 -128 0
20 -191 -142 0
20 -191 -156 0
20 -191 -170 0
20 -191 -184 0
20 -191 -212 0
20 -205 -100 0
20 -205 -114 0
20 -205 -128 0
20 -205 -142 0
20 -205 -156 0
20 -205 -170 0
20 -205 -184 0
20 -205 -198 0
21 -93 -115 0
21 -93 -129 0
21 -93 -143 0
21 -93 -157 0
21 -93 -171 0
21 -93 -185 0
21 -93 -199 0
21 -93 -213 0
21 -107 -101 0
21 -107 -129 0
21 -107 -143 0
21 -107 -157 0
21 -107 -171 0
21 -107 -185 0
21 -107 -199 0
21 -107 -213 0
21 -121 -101 0
21 -121 -115 0
21 -121 -143 0
21 -121 -157 0
21 -121 -171 0
21 -121 -185 0
21 -121 -199 0
21 -121 -213 0
21 -135 -101 0
21 -135 -115 0
21 -135 -129 0
21 -135 -157 0
21 -135 -171 0
21 -135 -185 0
21 -135 -199 0
21 -135 -213 0
21 -149 -101 0
21 -149 -115 0
21 -149 -129 0
21 -149 -143 0
21 -149 -171 0
21 -149 -185 0
21 -149 -199 0
21 -149 -213 0
21 -163 -101 0
21 -163 -115 0
21 -163 -129 0
21 -163 -143 0
21 -163 -157 0
21 -163 -185 0
21 -163 -199 0
21 -163 -213 0
21 -177 -101 0
21 -177 -115 0
21 -177 -129 0
21 -177 -143 0
21 -177 -157 0
21 -177 -171 0
21 -177 -199 0
21 -177 -213 0
21 -191 -101 0
21 -191 -115 0
21 -191 -129 0
21 -191 -143 0
21 -191 -157 0
21 -191 -171 0
21 -191 -185 0
21 -191 -213 0
21 -205 -101 0
21 -205 -115 0
21 -205 -129 0
21 -205 -143 0
21 -205 -157 0
21 -205 -171 0
21 -205 -185 0
21 -205 -199 0
22 -93 -116 0
22 -93 -130 0
22 -93 -144 0
22 -93 -158 0
22 -93 -172 0
22 -93 -186 0
22 -93 -200 0
22 -93 -214 0
22 -107 -102 0
22 -107 -130 0
22 -107 -144 0
22 -107 -158 0
22 -107 -172 0
22 -107 -186 0
22 -107 -200 0
22 -107 -214 0
22 -121 -102 0
22 -121 -116 0
22 -121 -144 0
22 -121 -158 0
22 -121 -172 0
22 -121 -186 0
22 -121 -200 0
22 -121 -214 0
22 -135 -102 0
22 -135 -116 0
22 -135 -130 0
22 -135 -158 0
22 -135 -172 0
22 -135 -186 0
22 -135 -200 0
22 -135 -214 0
22 -149 -102 0
22 -149 -116 0
22 -149 -130 0
22 -149 -144 0
22 -149 -172 0
22 -149 -186 0
22 -149 -200 0
22 -149 -214 0
22 -163 -102 0
22 -163 -116 0
22 -163 -130 0
22 -163 -144 0
22 -163 -158 0
22 -163 -186 0
22 -163 -200 0
22 -163 -214 0
22 -177 -102 0
22 -177 -116 0
22 -177 -130 0
22 -177 -144 0
22 -177 -158 0
22 -177 -172 0
22 -177 -200 0
22 -177 -214 0
22 -191 -102 0
22 -191 -116 0
22 -191 -130 0
22 -191 -144 0
22 -191 -158 0
22 -191 -172 0
22 -191 -186 0
22 -191 -214 0
22 -205 -102 0
22 -205 -116 0
22 -205 -130 0
22 -205 -144 0
22 -205 -158 0
22 -205 -172 0
22 -205 -186 0
22 -205 -200 0
23 -93 -117 0
23 -93 -131 0
23 -93 -145 0
23 -93 -159 0
23 -93 -173 0
23 -93 -187 0
23 -93 -201 0
23 -93 -215 0
23 -107 -103 0
23 -107 -131 0
23 -107 -145 0
23 -107 -159 0
23 -107 -173 0
23 -107 -187 0
23 -107 -201 0
23 -107 -215 0
23 -121 -103 0
23 -121 -117 0
23 -121 -145 0
23 -121 -159 0
23 -121 -173 0
23 -121 -187 0
23 -121 -201 0
23 -121 -215 0
23 -135 -103 0
23 -135 -117 0
23 -135 -131 0
23 -135 -159 0
23 -135 -173 0
23 -135 -187 0
23 -135 -201 0
23 -135 -215 0
23 -149 -103 0
23 -149 -117 0
23 -149 -131 0
23 -149 -145 0
23 -149 -173 0
23 -149 -187 0
23 -149 -201 0
23 -149 -215 0
23 -163 -103 0
23 -163 -117 0
23 -163 -131 0
23 -163 -145 0
23 -163 -159 0
23 -163 -187 0
23 -163 -201 0
23 -163 -215 0
23 -177 -103 0
23 -177 -117 0
23 -177 -131 0
23 -177 -145 0
23 -177 -159 0
23 -177 -173 0
23 -177 -201 0
23 -177 -215 0
23 -191 -103 0
23 -191 -117 0
23 -191 -131 0
23 -191 -145 0
23 -191 -159 0
23 -191 -173 0
23 -191 -187 0
23 -191 -215 0
23 -205 -103 0
23 -205 -117 0
23 -205 -131 0
23 -205 -145 0
23 -205 -159 0
23 -205 -173 0
23 -205 -187 0
23 -205 -201 0
24 -93 -118 0
24 -93 -132 0
24 -93 -146 0
24 -93 -160 0
24 -93 -174 0
24 -93 -188 0
24 -93 -202 0
24 -93 -216 0
24 -107 -104 0
24 -107 -132 0
24 -107 -146 0
24 -107 -160 0
24 -107 -174 0
24 -107 -188 0
24 -107 -202 0
24 -107 -216 0
24 -121 -104 0
24 -121 -118 0
24 -121 -146 0
24 -121 -160 0
24 -121 -174 0
24 -121 -188 0
24 -121 -202 0
24 -121 -216 0
24 -135 -104 0
24 -135 -118 0
24 -135 -132 0
24 -135 -160 0
24 -135 -174 0
24 -135 -188 0
24 -135 -202 0
24 -135 -216 0
24 -149 -104 0
24 -149 -118 0
24 -149 -132 0
24 -149 -146 0
24 -149 -174 0
24 -149 -188 0
24 -149 -202 0
24 -149 -216 0
24 -163 -104 0
24 -163 -118 0
24 -163 -132 0
24 -163 -146 0
24 -163 -160 0
24 -163 -188 0
24 -163 -202 0
24 -163 -216 0
24 -177 -104 0
24 -177 -118 0
24 -177 -132 0
24 -177 -146 0
24 -177 -160 0
24 -177 -174 0
24 -177 -202 0
24 -177 -216 0
24 -191 -104 0
24 -191 -118 0
24 -191 -132 0
24 -191 -146 0
24 -191 -160 0
24 -191 -174 0
24 -191 -188 0
24 -191 -216 0
24 -205 -104 0
24 -205 -118 0
24 -205 -132 0
24 -205 -146 0
24 -205 -160 0
24 -205 -174 0
24 -205 -188 0
24 -205 -202 0
25 -93 -119 0
25 -93 -133 0
25 -93 -147 0
25 -93 -161 0
25 -93 -175 0
25 -93 -189 0
25 -93 -203 0
25 -93 -217 0
25 -107 -105 0
25 -107 -133 0
25 -107 -147 0
25 -107 -161 0
25 -107 -175 0
25 -107 -189 0
25 -107 -203 0
25 -107 -217 0
25 -121 -105 0
25 -121 -119 0
25 -121 -147 0
25 -121 -161 0
25 -121 -175 0
25 -121 -189 0
25 -121 -203 0
25 -121 -217 0
25 -135 -105 0
25 -135 -119 0
25 -135 -133 0
25 -135 -161 0
25 -135 -175 0
25 -135 -189 0
25 -135 -203 0
25 -135 -217 0
25 -149 -105 0
25 -149 -119 0
25 -149 -133 0
25 -149 -147 0
25 -149 -175 0
25 -149 -189 0
25 -149 -203 0
25 -149 -217 0
25 -163 -105 0
25 -163 -119 0
25 -163 -133 0
25 -163 -147 0
25 -163 -161 0
25 -163 -189 0
25 -163 -203 0
25 -163 -217 0
25 -177 -105 0
25 -177 -119 0
25 -177 -133 0
25 -177 -147 0
25 -177 -161 0
25 -177 -175 0
25 -177 -203 0
25 -177 -217 0
25 -191 -105 0
25 -191 -119 0
25 -191 -133 0
25 -191 -147 0
25 -191 -161 0
25 -191 -175 0
25 -191 -189 0
25 -191 -217 0
25 -205 -105 0
25 -205 -119 0
25 -205 -133 0
25 -205 -147 0
25 -205 -161 0
25 -205 -175 0
25 -205 -189 0
25 -205 -203 0
26 -94 -109 0
26 -94 -123 0
26 -94 -137 0
26 -94 -151 0
26 -94 -165 0
26 -94 -179 0
26 -94 -193 0
26 -94 -207 0
26 -108 -95 0
26 -108 -123 0
26 -108 -137 0
26 -108 -151 0
26 -108 -165 0
26 -108 -179 0
26 -108 -193 0
26 -108 -207 0
26 -122 -95 0
26 -122 -109 0
26 -122 -137 0
26 -122 -151 0
26 -122 -165 0
26 -122 -179 0
26 -122 -193 0
26 -122 -207 0
26 -136 -95 0
26 -136 -109 0
26 -136 -123 0
26 -136 -151 0
26 -136 -165 0
26 -136 -179 0
26 -136 -193 0
26 -136 -207 0
26 -150 -95 0
26 -150 -109 0
26 -150 -123 0
26 -150 -137 0
26 -150 -165 0
26 -150 -179 0
26 -150 -193 0
26 -150 -207 0
26 -164 -95 0
26 -164 -109 0
26 -164 -123 0
26 -164 -137 0
26 -164 -151 0
26 -164 -179 0
26 -164 -193 0
26 -164 -207 0
26 -178 -95 0
26 -178 -109 0
26 -178 -123 0
26 -178 -137 0
26 -178 -151 0
26 -178 -165 0
26 -178 -193 0
26 -178 -207 0
26 -192 -95 0
26 -192 -109 0
26 -192 -123 0
26 -192 -137 0
26 -192 -151 0
26 -192 -165 0
26 -192 -179 0
26 -192 -207 0
26 -206 -95 0
26 -206 -109 0
26 -206 -123 0
26 -206 -137 0
26 -206 -151 0
26 -206 -165 0
26 -206 -179 0
26 -206 -193 0
27 -94 -110 0
27 -94 -124 0
27 -94 -138 0
27 -94 -152 0
27 -94 -166 0
27 -94 -180 0
27 -94 -194 0
27 -94 -208 0
27 -108 -96 0
27 -108 -124 0
27 -108 -138 0
27 -108 -152 0
27 -108 -166 0
27 -108 -180 0
27 -108 -194 0
27 -108 -208 0
27 -122 -96 0
27 -122 -110 0
27 -122 -138 0
27 -122 -152 0
27 -122 -166 0
27 -122 -180 0
27 -122 -194 0
27 -122 -208 0
27 -136 -96 0
27 -136 -110 0
27 -136 -124 0
27 -136 -152 0
27 -136 -166 0
27 -136 -180 0
27 -136 -194 0
27 -136 -208 0
27 -150 -96 0
27 -150 -110 0
27 -150 -124 0
27 -150 -138 0
27 -150 -166 0
27 -150 -180 0
27 -150 -194 0
27 -150 -208 0
27 -164 -96 0
27 -164 -110 0
27 -164 -124 0
27 -164 -138 0
27 -164 -152 0
27 -164 -180 0
27 -164 -194 0
27 -164 -208 0
27 -178 -96 0
27 -178 -110 0
27 -178 -124 0
27 -178 -138 0
27 -178 -152 0
27 -178 -166 0
27 -178 -194 0
27 -178 -208 0
27 -192 -96 0
27 -192 -110 0
27 -192 -124 0
27 -192 -138 0
27 -192 -152 0
27 -192 -166 0
27 -192 -180 0
27 -192 -208 0
27 -206 -96 0
27 -206 -110 0
27 -206 -124 0
27 -206 -138 0
27 -206 -152 0
27 -206 -166 0
27 -206 -180 0
27 -206 -194 0
28 -94 -111 0
28 -94 -125 0
28 -94 -139 0
28 -94 -153 0
28 -94 -167 0
28 -94 -181 0
28 -94 -195 0
28 -94 -209 0
28 -108 -97 0
28 -108 -125 0
28 -108 -139 0
28 -108 -153 0
28 -108 -167 0
28 -108 -181 0
28 -108 -195 0
28 -108 -209 0
28 -122 -97 0
28 -122 -111 0
28 -122 -139 0
28 -122 -153 0
28 -122 -167 0
28 -122 -181 0
28 -122 -195 0
28 -122 -209 0
28 -136 -97 0
28 -136 -111 0
28 -136 -125 0
28 -136 -153 0
28 -136 -167 0
28 -136 -181 0
28 -136 -195 0
28 -136 -209 0
28 -150 -97 0
28 -150 -111 0
28 -150 -125 0
28 -150 -139 0
28 -150 -167 0
28 -150 -181 0
28 -150 -195 0
28 -150 -209 0
28 -164 -97 0
28 -164 -111 0
28 -164 -125 0
28 -164 -139 0
28 -164 -153 0
28 -164 -181 0
28 -164 -195 0
28 -164 -209 0
28 -178 -97 0
28 -178 -111 0
28 -178 -125 0
28 -178 -139 0
28 -178 -153 0
28 -178 -167 0
28 -178 -195 0
28 -178 -209 0
28 -192 -97 0
28 -192 -111 0
28 -192 -125 0
28 -192 -139 0
28 -192 -153 0
28 -192 -167 0
28 -192 -181 0
28 -192 -209 0
28 -206 -97 0
28 -206 -111 0
28 -206 -125 0
28 -206 -139 0
28 -206 -153 0
28 -206 -167 0
28 -206 -181 0
28 -206 -195 0
29 -94 -112 0
29 -94 -126 0
29 -94 -140 0
29 -94 -154 0
29 -94 -168 0
29 -94 -182 0
29 -94 -196 0
29 -94 -210 0
29 -108 -98 0
29 -108 -126 0
29 -108 -140 0
29 -108 -154 0
29 -108 -168 0
29 -108 -182 0
29 -108 -196 0
29 -108 -210 0
29 -122 -98 0
29 -122 -112 0
29 -122 -140 0
29 -122 -154 0
29 -122 -168 0
29 -122 -182 0
29 -122 -196 0
29 -122 -210 0
29 -136 -98 0
29 -136 -112 0
29 -136 -126 0
29 -136 -154 0
29 -136 -168 0
29 -136 -182 0
29 -136 -196 0
29 -136 -210 0
29 -150 -98 0
29 -150 -112 0
29 -150 -126 0
29 -150 -140 0
29 -150 -168 0
29 -150 -182 0
29 -150 -196 0
29 -150 -210 0
29 -164 -98 0
29 -164 -112 0
29 -164 -126 0
29 -164 -140 0
29 -164 -154 0
29 -164 -182 0
29 -164 -196 0
29 -164 -210 0
29 -178 -98 0
29 -178 -112 0
29 -178 -126 0
29 -178 -140 0
29 -178 -154 0
29 -178 -168 0
29 -178 -196 0
29 -178 -210 0
29 -192 -98 0
29 -192 -112 0
29 -192 -126 0
29 -192 -140 0
29 -192 -154 0
29 -192 -168 0
29 -192 -182 0
29 -192 -210 0
29 -206 -98 0
29 -206 -112 0
29 -206 -126 0
29 -206 -140 0
29 -206 -154 0
29 -206 -168 0
29 -206 -182 0
29 -206 -196 0
30 -94 -113 0
30 -94 -127 0
30 -94 -141 0
30 -94 -155 0
30 -94 -169 0
30 -94 -183 0
30 -94 -197 0
30 -94 -211 0
30 -108 -99 0
30 -108 -127 0
30 -108 -141 0
30 -108 -155 0
30 -108 -169 0
30 -108 -183 0
30 -108 -197 0
30 -108 -211 0
30 -122 -99 0
30 -122 -113 0
30 -122 -141 0
30 -122 -155 0
30 -122 -169 0
30 -122 -183 0
30 -122 -197 0
30 -122 -211 0
30 -136 -99 0
30 -136 -113 0
30 -136 -127 0
30 -136 -155 0
30 -136 -169 0
30 -136 -183 0
30 -136 -197 0
30 -136 -211 0
30 -150 -99 0
30 -150 -113 0
30 -150 -127 0
30 -150 -141 0
30 -150 -169 0
30 -150 -183 0
30 -150 -197 0
30 -150 -211 0
30 -164 -99 0
30 -164 -113 0
30 -164 -127 0
30 -164 -141 0
30 -164 -155 0
30 -164 -183 0
30 -164 -197 0
30 -164 -211 0
30 -178 -99 0
30 -178 -113 0
30 -178 -127 0
30 -178 -141 0
30 -178 -155 0
30 -178 -169 0
30 -178 -197 0
30 -178 -211 0
30 -192 -99 0
30 -192 -113 0
30 -192 -127 0
30 -192 -141 0
30 -192 -155 0
30 -192 -169 0
30 -192 -183 0
30 -192 -211 0
30 -206 -99 0
30 -206 -113 0
30 -206 -127 0
30 -206 -141 0
30 -206 -155 0
30 -206 -169 0
30 -206 -183 0
30 -206 -197 0
31 -94 -114 0
31 -94 -128 0
31 -94 -142 0
31 -94 -156 0
31 -94 -170 0
31 -94 -184 0
31 -94 -198 0
31 -94 -212 0
31 -108 -100 0
31 -108 -128 0
31 -108 -142 0
31 -108 -156 0
31 -108 -170 0
31 -108 -184 0
31 -108 -198 0
31 -108 -212 0
31 -122 -100 0
31 -122 -114 0
31 -122 -142 0
31 -122 -156 0
31 -122 -170 0
31 -122 -184 0
31 -122 -198 0
31 -122 -212 0
31 -136 -100 0
31 -136 -114 0
31 -136 -128 0
31 -136 -156 0
31 -136 -170 0
31 -136 -184 0
31 -136 -198 0
31 -136 -212 0
31 -150 -100 0
31 -150 -114 0
31 -150 -128 0
31 -150 -142 0
31 -150 -170 0
31 -150 -184 0
31 -150 -198 0
31 -150 -212 0
31 -164 -100 0
31 -164 -114 0
31 -164 -128 0
31 -164 -142 0
31 -164 -156 0
31 -164 -184 0
31 -164 -198 0
31 -164 -212 0
31 -178 -100 0
31 -178 -114 0
31 -178 -128 0
31 -178 -142 0
31 -178 -156 0
31 -178 -170 0
31 -178 -198 0
31 -178 -212 0
31 -192 -100 0
31 -192 -114 0
31 -192 -128 0
31 -192 -142 0
31 -192 -156 0
31 -192 -170 0
31 -192 -184 0
31 -192 -212 0
31 -206 -100 0
31 -206 -114 0
31 -206 -128 0
31 -206 -142 0
31 -206 -156 0
31 -206 -170 0
31 -206 -184 0
31 -206 -198 0
32 -94 -115 0
32 -94 -129 0
32 -94 -143 0
32 -94 -157 0
32 -94 -171 0
32 -94 -185 0
32 -94 -199 0
32 -94 -213 0
32 -108 -101 0
32 -108 -129 0
32 -108 -143 0
32 -108 -157 0
32 -108 -171 0
32 -108 -185 0
32 -108 -199 0
32 -108 -213 0
32 -122 -101 0
32 -122 -115 0
32 -122 -143 0
32 -122 -157 0
32 -122 -171 0
32 -122 -185 0
32 -122 -199 0
32 -122 -213 0
32 -136 -101 0
32 -136 -115 0
32 -136 -129 0
32 -136 -157 0
32 -136 -171 0
32 -136 -185 0
32 -136 -199 0
32 -136 -213 0
32 -150 -101 0
32 -150 -115 0
32 -150 -129 0
32 -150 -143 0
32 -150 -171 0
32 -150 -185 0
32 -150 -199 0
32 -150 -213 0
32 -164 -101 0
32 -164 -115 0
32 -164 -129 0
32 -164 -143 0
32 -164 -157 0
32 -164 -185 0
32 -164 -199 0
32 -164 -213 0
32 -178 -101 0
32 -178 -115 0
32 -178 -129 0
32 -178 -143 0
32 -178 -157 0
32 -178 -171 0
32 -178 -199 0
32 -178 -213 0
32 -192 -101 0
32 -192 -115 0
32 -192 -129 0
32 -192 -143 0
32 -192 -157 0
32 -192 -171 0
32 -192 -185 0
32 -192 -213 0
32 -206 -101 0
32 -206 -115 0
32 -206 -129 0
32 -206 -143 0
32 -206 -157 0
32 -206 -171 0
32 -206 -185 0
32 -206 -199 0
33 -94 -116 0
33 -94 -130 0
33 -94 -144 0
33 -94 -158 0
33 -94 -172 0
33 -94 -186 0
33 -94 -200 0
33 -94 -214 0
33 -108 -102 0
33 -108 -130 0
33 -108 -144 0
33 -108 -158 0
33 -108 -172 0
33 -108 -186 0
33 -108 -200 0
33 -108 -214 0
33 -122 -102 0
33 -122 -116 0
33 -122 -144 0
33 -122 -158 0
33 -122 -172 0
33 -122 -186 0
33 -122 -200 0
33 -122 -214 0
33 -136 -102 0
33 -136 -116 0
33 -136 -130 0
33 -136 -158 0
33 -136 -172 0
33 -136 -186 0
33 -136 -200 0
33 -136 -214 0
33 -150 -102 0
33 -150 -116 0
33 -150 -130 0
33 -150 -144 0
33 -150 -172 0
33 -150 -186 0
33 -150 -200 0
33 -150 -214 0
33 -164 -102 0
33 -164 -116 0
33 -164 -130 0
33 -164 -144 0
33 -164 -158 0
33 -164 -186 0
33 -164 -200 0
33 -164 -214 0
33 -178 -102 0
33 -178 -116 0
33 -178 -130 0
33 -178 -144 0
33 -178 -158 0
33 -178 -172 0
33 -178 -200 0
33 -178 -214 0
33 -192 -102 0
33 -192 -116 0
33 -192 -130 0
33 -192 -144 0
33 -192 -158 0
33 -192 -172 0
33 -192 -186 0
33 -192 -214 0
33 -206 -102 0
33 -206 -116 0
33 -206 -130 0
33 -206 -144 0
33 -206 -158 0
33 -206 -172 0
33 -206 -186 0
33 -206 -200 0
34 -94 -117 0
34 -94 -131 0
34 -94 -145 0
34 -94 -159 0
34 -94 -173 0
34 -94 -187 0
34 -94 -201 0
34 -94 -215 0
34 -108 -103 0
34 -108 -131 0
34 -108 -145 0
34 -108 -159 0
34 -108 -173 0
34 -108 -187 0
34 -108 -201 0
34 -108 -215 0
34 -122 -103 0
34 -122 -117 0
34 -122 -145 0
34 -122 -159 0
34 -122 -173 0
34 -122 -187 0
34 -122 -201 0
34 -122 -215 0
34 -136 -103 0
34 -136 -117 0
34 -136 -131 0
34 -136 -159 0
34 -136 -173 0
34 -136 -187 0
34 -136 -201 0
34 -136 -215 0
34 -150 -103 0
34 -150 -117 0
34 -150 -131 0
34 -150 -145 0
34 -150 -173 0
34 -150 -187 0
34 -150 -201 0
34 -150 -215 0
34 -164 -103 0
34 -164 -117 0
34 -164 -131 0
34 -164 -145 0
34 -164 -159 0
34 -164 -187 0
34 -164 -201 0
34 -164 -215 0
34 -178 -103 0
34 -178 -117 0
34 -178 -131 0
34 -178 -145 0
34 -178 -159 0
34 -178 -173 0
34 -178 -201 0
34 -178 -215 0
34 -192 -103 0
34 -192 -117 0
34 -192 -131 0
34 -192 -145 0
34 -192 -159 0
34 -192 -173 0
34 -192 -187 0
34 -192 -215 0
34 -206 -103 0
34 -206 -117 0
34 -206 -131 0
34 -206 -145 0
34 -206 -159 0
34 -206 -173 0
34 -206 -187 0
34 -206 -201 0
35 -94 -118 0
35 -94 -132 0
35 -94 -146 0
35 -94 -160 0
35 -94 -174 0
35 -94 -188 0
35 -94 -202 0
35 -94 -216 0
35 -108 -104 0
35 -108 -132 0
35 -108 -146 0
35 -108 -160 0
35 -108 -174 0
35 -108 -188 0
35 -108 -202 0
35 -108 -216 0
35 -122 -104 0
35 -122 -118 0
35 -122 -146 0
35 -122 -160 0
35 -122 -174 0
35 -122 -188 0
35 -122 -202 0
35 -122 -216 0
35 -136 -104 0
35 -136 -118 0
35 -136 -132 0
35 -136 -160 0
35 -136 -174 0
35 -136 -188 0
35 -136 -202 0
35 -136 -216 0
35 -150 -104 0
35 -150 -118 0
35 -150 -132 0
35 -150 -146 0
35 -150 -174 0
35 -150 -188 0
35 -150 -202 0
35 -150 -216 0
35 -164 -104 0
35 -164 -118 0
35 -164 -132 0
35 -164 -146 0
35 -164 -160 0
35 -164 -188 0
35 -164 -202 0
35 -164 -216 0
35 -178 -104 0
35 -178 -118 0
35 -178 -132 0
35 -178 -146 0
35 -178 -160 0
35 -178 -174 0
35 -178 -202 0
35 -178 -216 0
35 -192 -104 0
35 -192 -118 0
35 -192 -132 0
35 -192 -146 0
35 -192 -160 0
35 -192 -174 0
35 -192 -188 0
35 -192 -216 0
35 -206 -104 0
35 -206 -118 0
35 -206 -132 0
35 -206 -146 0
35 -206 -160 0
35 -206 -174 0
35 -206 -188 0
35 -206 -202 0
36 -94 -119 0
36 -94 -133 0
36 -94 -147 0
36 -94 -161 0
36 -94 -175 0
36 -94 -189 0
36 -94 -203 0
36 -94 -217 0
36 -108 -105 0
36 -108 -133 0
36 -108 -147 0
36 -108 -161 0
36 -108 -175 0
36 -108 -189 0
36 -108 -203 0
36 -108 -217 0
36 -122 -105 0
36 -122 -119 0
36 -122 -147 0
36 -122 -161 0
36 -122 -175 0
36 -122 -189 0
36 -122 -203 0
36 -122 -217 0
36 -136 -105 0
36 -136 -119 0
36 -136 -133 0
36 -136 -161 0
36 -136 -175 0
36 -136 -189 0
36 -136 -203 0
36 -136 -217 0
36 -150 -105 0
36 -150 -119 0
36 -150 -133 0
36 -150 -147 0
36 -150 -175 0
36 -150 -189 0
36 -150 -203 0
36 -150 -217 0
36 -164 -105 0
36 -164 -119 0
36 -164 -133 0
36 -164 -147 0
36 -164 -161 0
36 -164 -189 0
36 -164 -203 0
36 -164 -217 0
36 -178 -105 0
36 -178 -119 0
36 -178 -133 0
36 -178 -147 0
36 -178 -161 0
36 -178 -175 0
36 -178 -203 0
36 -178 -217 0
36 -192 -105 0
36 -192 -119 0
36 -192 -133 0
36 -192 -147 0
36 -192 -161 0
36 -192 -175 0
36 -192 -189 0
36 -192 -217 0
36 -206 -105 0
36 -206 -119 0
36 -206 -133 0
36 -206 -147 0
36 -206 -161 0
36 -206 -175 0
36 -206 -189 0
36 -206 -203 0
37 -95 -110 0
37 -95 -124 0
37 -95 -138 0
37 -95 -152 0
37 -95 -166 0
37 -95 -180 0
37 -95 -194 0
37 -95 -208 0
37 -109 -96 0
37 -109 -124 0
37 -109 -138 0
37 -109 -152 0
37 -109 -166 0
37 -109 -180 0
37 -109 -194 0
37 -109 -208 0
37 -123 -96 0
37 -123 -110 0
37 -123 -138 0
37 -123 -152 0
37 -123 -166 0
37 -123 -180 0
37 -123 -194 0
37 -123 -208 0
37 -137 -96 0
37 -137 -110 0
37 -137 -124 0
37 -137 -152 0
37 -137 -166 0
37 -137 -180 0
37 -137 -194 0
37 -137 -208 0
37 -151 -96 0
37 -151 -110 0
37 -151 -124 0
37 -151 -138 0
37 -151 -166 0
37 -151 -180 0
37 -151 -194 0
37 -151 -208 0
37 -165 -96 0
37 -165 -110 0
37 -165 -124 0
37 -165 -138 0
37 -165 -152 0
37 -165 -180 0
37 -165 -194 0
37 -165 -208 0
37 -179 -96 0
37 -179 -110 0
37 -179 -124 0
37 -179 -138 0
37 -179 -152 0
37 -179 -166 0
37 -179 -194 0
37 -179 -208 0
37 -193 -96 0
37 -193 -110 0
37 -193 -124 0
37 -193 -138 0
37 -193 -152 0
37 -193 -166 0
37 -193 -180 0
37 -193 -208 0
37 -207 -96 0
37 -207 -110 0
37 -207 -124 0
37 -207 -138 0
37 -207 -152 0
37 -207 -166 0
37 -207 -180 0
37 -207 -194 0
38 -95 -111 0
38 -95 -125 0
38 -95 -139 0
38 -95 -153 0
38 -95 -167 0
38 -95 -181 0
38 -95 -195 0
38 -95 -209 0
38 -109 -97 0
38 -109 -125 0
38 -109 -139 0
38 -109 -153 0
38 -109 -167 0
38 -109 -181 0
38 -109 -195 0
38 -109 -209 0
38 -123 -97 0
38 -123 -111 0
38 -123 -139 0
38 -123 -153 0
38 -123 -167 0
38 -123 -181 0
38 -123 -195 0
38 -123 -209 0
38 -137 -97 0
38 -137 -111 0
38 -137 -125 0
38 -137 -153 0
38 -137 -167 0
38 -137 -181 0
38 -137 -195 0
38 -137 -209 0
38 -151 -97 0
38 -151 -111 0
38 -151 -125 0
38 -151 -139 0
38 -151 -167 0
38 -151 -181 0
38 -151 -195 0
38 -151 -209 0
38 -165 -97 0
38 -165 -111 0
38 -165 -125 0
38 -165 -139 0
38 -165 -153 0
38 -165 -181 0
38 -165 -195 0
38 -165 -209 0
38 -179 -97 0
38 -179 -111 0
38 -179 -125 0
38 -179 -139 0
38 -179 -153 0
38 -179 -167 0
38 -179 -195 0
38 -179 -209 0
38 -193 -97 0
38 -193 -111 0
38 -193 -125 0
38 -193 -139 0
38 -193 -153 0
38 -193 -167 0
38 -193 -181 0
38 -193 -209 0
38 -207 -97 0
38 -207 -111 0
38 -207 -125 0
38 -207 -139 0
38 -207 -153 0
38 -207 -167 0
38 -207 -181 0
38 -207 -195 0
39 -95 -112 0
39 -95 -126 0
39 -95 -140 0
39 -95 -154 0
39 -95 -168 0
39 -95 -182 0
39 -95 -196 0
39 -95 -210 0
39 -109 -98 0
39 -109 -126 0
39 -109 -140 0
39 -109 -154 0
39 -109 -168 0
39 -109 -182 0
39 -109 -196 0
39 -109 -210 0
39 -123 -98 0
39 -123 -112 0
39 -123 -140 0
39 -123 -154 0
39 -123 -168 0
39 -123 -182 0
39 -123 -196 0
39 -123 -210 0
39 -137 -98 0
39 -137 -112 0
39 -137 -126 0
39 -137 -154 0
39 -137 -168 0
39 -137 -182 0
39 -137 -196 0
39 -137 -210 0
39 -151 -98 0
39 -151 -112 0
39 -151 -126 0
39 -151 -140 0
39 -151 -168 0
39 -151 -182 0
39 -151 -196 0
39 -151 -210 0
39 -165 -98 0
39 -165 -112 0
39 -165 -126 0
39 -165 -140 0
39 -165 -154 0
39 -165 -182 0
39 -165 -196 0
39 -165 -210 0
39 -179 -98 0
39 -179 -112 0
39 -179 -126 0
39 -179 -140 0
39 -179 -154 0
39 -179 -168 0
39 -179 -196 0
39 -179 -210 0
39 -193 -98 0
39 -193 -112 0
39 -193 -126 0
39 -193 -140 0
39 -193 -154 0
39 -193 -168 0
39 -193 -182 0
39 -193 -210 0
39 -207 -98 0
39 -207 -112 0
39 -207 -126 0
39 -207 -140 0
39 -207 -154 0
39 -207 -168 0
39 -207 -182 0
39 -207 -196 0
40 -95 -113 0
40 -95 -127 0
40 -95 -141 0
40 -95 -155 0
40 -95 -169 0
40 -95 -183 0
40 -95 -197 0
40 -95 -211 0
40 -109 -99 0
40 -109 -127 0
40 -109 -141 0
40 -109 -155 0
40 -109 -169 0
40 -109 -183 0
40 -109 -197 0
40 -109 -211 0
40 -123 -99 0
40 -123 -113 0
40 -123 -141 0
40 -123 -155 0
40 -123 -169 0
40 -123 -183 0
40 -123 -197 0
40 -123 -211 0
40 -137 -99 0
40 -137 -113 0
40 -137 -127 0
40 -137 -155 0
40 -137 -169 0
40 -137 -183 0
40 -137 -197 0
40 -137 -211 0
40 -151 -99 0
40 -151 -113 0
40 -151 -127 0
40 -151 -141 0
40 -151 -169 0
40 -151 -183 0
40 -151 -197 0
40 -151 -211 0
40 -165 -99 0
40 -165 -113 0
40 -165 -127 0
40 -165 -141 0
40 -165 -155 0
40 -165 -183 0
40 -165 -197 0
40 -165 -211 0
40 -179 -99 0
40 -179 -113 0
40 -179 -127 0
40 -179 -141 0
40 -179 -155 0
40 -179 -169 0
40 -179 -197 0
40 -179 -211 0
40 -193 -99 0
40 -193 -113 0
40 -193 -127 0
40 -193 -141 0
40 -193 -155 0
40 -193 -169 0
40 -193 -183 0
40 -193 -211 0
40 -207 -99 0
40 -207 -113 0
40 -207 -127 0
40 -207 -141 0
40 -207 -155 0
40 -207 -169 0
40 -207 -183 0
40 -207 -197 0
41 -95 -114 0
41 -95 -128 0
41 -95 -142 0
41 -95 -156 0
41 -95 -170 0
41 -95 -184 0
41 -95 -198 0
41 -95 -212 0
41 -109 -100 0
41 -109 -128 0
41 -109 -142 0
41 -109 -156 0
41 -109 -170 0
41 -109 -184 0
41 -109 -198 0
41 -109 -212 0
41 -123 -100 0
41 -123 -114 0
41 -123 -142 0
41 -123 -156 0
41 -123 -170 0
41 -123 -184 0
41 -123 -198 0
41 -123 -212 0
41 -137 -100 0
41 -137 -114 0
41 -137 -128 0
41 -137 -156 0
41 -137 -170 0
41 -137 -184 0
41 -137 -198 0
41 -137 -212 0
41 -151 -100 0
41 -151 -114 0
41 -151 -128 0
41 -151 -142 0
41 -151 -170 0
41 -151 -184 0
41 -151 -198 0
41 -151 -212 0
41 -165 -100 0
41 -165 -114 0
41 -165 -128 0
41 -165 -142 0
41 -165 -156 0
41 -165 -184 0
41 -165 -198 0
41 -165 -212 0
41 -179 -100 0
41 -179 -114 0
41 -179 -128 0
41 -179 -142 0
41 -179 -156 0
41 -179 -170 0
41 -179 -198 0
41 -179 -212 0
41 -193 -100 0
41 -193 -114 0
41 -193 -128 0
41 -193 -142 0
41 -193 -156 0
41 -193 -170 0
41 -193 -184 0
41 -193 -212 0
41 -207 -100 0
41 -207 -114 0
41 -207 -128 0
41 -207 -142 0
41 -207 -156 0
41 -207 -170 0
41 -207 -184 0
41 -207 -198 0
42 -95 -115 0
42 -95 -129 0
42 -95 -143 0
42 -95 -157 0
42 -95 -171 0
42 -95 -185 0
42 -95 -199 0
42 -95 -213 0
42 -109 -101 0
42 -109 -129 0
42 -109 -143 0
42 -109 -157 0
42 -109 -171 0
42 -109 -185 0
42 -109 -199 0
42 -109 -213 0
42 -123 -101 0
42 -123 -115 0
42 -123 -143 0
42 -123 -157 0
42 -123 -171 0
42 -123 -185 0
42 -123 -199 0
42 -123 -213 0
42 -137 -101 0
42 -137 -115 0
42 -137 -129 0
42 -137 -157 0
42 -137 -171 0
42 -137 -185 0
42 -137 -199 0
42 -137 -213 0
42 -151 -101 0
42 -151 -115 0
42 -151 -129 0
42 -151 -143 0
42 -151 -171 0
42 -151 -185 0
42 -151 -199 0
42 -151 -213 0
42 -165 -101 0
42 -165 -115 0
42 -165 -129 0
42 -165 -143 0
42 -165 -157 0
42 -165 -185 0
42 -165 -199 0
42 -165 -213 0
42 -179 -101 0
42 -179 -115 0
42 -179 -129 0
42 -179 -143 0
42 -179 -157 0
42 -179 -171 0
42 -179 -199 0
42 -179 -213 0
42 -193 -101 0
42 -193 -115 0
42 -193 -129 0
42 -193 -143 0
42 -193 -157 0
42 -193 -171 0
42 -193 -185 0
42 -193 -213 0
42 -207 -101 0
42 -207 -115 0
42 -207 -129 0
42 -207 -143 0
42 -207 -157 0
42 -207 -171 0
42 -207 -185 0
42 -207 -199 0
43 -95 -116 0
43 -95 -130 0
43 -95 -144 0
43 -95 -158 0
43 -95 -172 0
43 -95 -186 0
43 -95 -200 0
43 -95 -214 0
43 -109 -102 0
43 -109 -130 0
43 -109 -144 0
43 -109 -158 0
43 -109 -172 0
43 -109 -186 0
43 -109 -200 0
43 -109 -214 0
43 -123 -102 0
43 -123 -116 0
43 -123 -144 0
43 -123 -158 0
43 -123 -172 0
43 -123 -186 0
43 -123 -200 0
43 -123 -214 0
43 -137 -102 0
43 -137 -116 0
43 -137 -130 0
43 -137 -158 0
43 -137 -172 0
43 -137 -186 0
43 -137 -200 0
43 -137 -214 0
43 -151 -102 0
43 -151 -116 0
43 -151 -130 0
43 -151 -144 0
43 -151 -172 0
43 -151 -186 0
43 -151 -200 0
43 -151 -214 0
43 -165 -102 0
43 -165 -116 0
43 -165 -130 0
43 -165 -144 0
43 -165 -158 0
43 -165 -186 0
43 -165 -200 0
43 -165 -214 0
43 -179 -102 0
43 -179 -116 0
43 -179 -130 0
43 -179 -144 0
43 -179 -158 0
43 -179 -172 0
43 -179 -200 0
43 -179 -214 0
43 -193 -102 0
43 -193 -116 0
43 -193 -130 0
43 -193 -144 0
43 -193 -158 0
43 -193 -172 0
43 -193 -186 0
43 -193 -214 0
43 -207 -102 0
43 -207 -116 0
43 -207 -130 0
43 -207 -144 0
43 -207 -158 0
43 -207 -172 0
43 -207 -186 0
43 -207 -200 0
44 -95 -117 0
44 -95 -131 0
44 -95 -145 0
44 -95 -159 0
44 -95 -173 0
44 -95 -187 0
44 -95 -201 0
44 -95 -215 0
44 -109 -103 0
44 -109 -131 0
44 -109 -145 0
44 -109 -159 0
44 -109 -173 0
44 -109 -187 0
44 -109 -201 0
44 -109 -215 0
44 -123 -103 0
44 -123 -117 0
44 -123 -145 0
44 -123 -159 0
44 -123 -173 0
44 -123 -187 0
44 -123 -201 0
44 -123 -215 0
44 -137 -103 0
44 -137 -117 0
44 -137 -131 0
44 -137 -159 0
44 -137 -173 0
44 -137 -187 0
44 -137 -201 0
44 -137 -215 0
44 -151 -103 0
44 -151 -117 0
44 -151 -131 0
44 -151 -145 0
44 -151 -173 0
44 -151 -187 0
44 -151 -201 0
44 -151 -215 0
44 -165 -103 0
44 -165 -117 0
44 -165 -131 0
44 -165 -145 0
44 -165 -159 0
44 -165 -187 0
44 -165 -201 0
44 -165 -215 0
44 -179 -103 0
44 -179 -117 0
44 -179 -131 0
44 -179 -145 0
44 -179 -159 0
44 -179 -173 0
44 -179 -201 0
44 -179 -215 0
44 -193 -103 0
44 -193 -117 0
44 -193 -131 0
44 -193 -145 0
44 -193 -159 0
44 -193 -173 0
44 -193 -187 0
44 -193 -215 0
44 -207 -103 0
44 -207 -117 0
44 -207 -131 0
44 -207 -145 0
44 -207 -159 0
44 -207 -173 0
44 -207 -187 0
44 -207 -201 0
45 -95 -118 0
45 -95 -132 0
45 -95 -146 0
45 -95 -160 0
45 -95 -174 0
45 -95 -188 0
45 -95 -202 0
45 -95 -216 0
45 -109 -104 0
45 -109 -132 0
45 -109 -146 0
45 -109 -160 0
45 -109 -174 0
45 -109 -188 0
45 -109 -202 0
45 -109 -216 0
45 -123 -104 0
45 -123 -118 0
45 -123 -146 0
45 -123 -160 0
45 -123 -174 0
45 -123 -188 0
45 -123 -202 0
45 -123 -216 0
45 -137 -104 0
45 -137 -118 0
45 -137 -132 0
45 -137 -160 0
45 -137 -174 0
45 -137 -188 0
45 -137 -202 0
45 -137 -216 0
45 -151 -104 0
45 -151 -118 0
45 -151 -132 0
45 -151 -146 0
45 -151 -174 0
45 -151 -188 0
45 -151 -202 0
45 -151 -216 0
45 -165 -104 0
45 -165 -118 0
45 -165 -132 0
45 -165 -146 0
45 -165 -160 0
45 -165 -188 0
45 -165 -202 0
45 -165 -216 0
45 -179 -104 0
45 -179 -118 0
45 -179 -132 0
45 -179 -146 0
45 -179 -160 0
45 -179 -174 0
45 -179 -202 0
45 -179 -216 0
45 -193 -104 0
45 -193 -118 0
45 -193 -132 0
45 -193 -146 0
45 -193 -160 0
45 -193 -174 0
45 -193 -188 0
45 -193 -216 0
45 -207 -104 0
45 -207 -118 0
45 -207 -132 0
45 -207 -146 0
45 -207 -160 0
45 -207 -174 0
45 -207 -188 0
45 -207 -202 0
46 -95 -119 0
46 -95 -133 0
46 -95 -147 0
46 -95 -161 0
46 -95 -175 0
46 -95 -189 0
46 -95 -203 0
46 -95 -217 0
46 -109 -105 0
46 -109 -133 0
46 -109 -147 0
46 -109 -161 0
46 -109 -175 0
46 -109 -189 0
46 -109 -203 0
46 -109 -217 0
46 -123 -105 0
46 -123 -119 0
46 -123 -147 0
46 -123 -161 0
46 -123 -175 0
46 -123 -189 0
46 -123 -203 0
46 -123 -217 0
46 -137 -105 0
46 -137 -119 0
46 -137 -133 0
46 -137 -161 0
46 -137 -175 0
46 -137 -189 0
46 -137 -203 0
46 -137 -217 0
46 -151 -105 0
46 -151 -119 0
46 -151 -133 0
46 -151 -147 0
46 -151 -175 0
46 -151 -189 0
46 -151 -203 0
46 -151 -217 0
46 -165 -105 0
46 -165 -119 0
46 -165 -133 0
46 -165 -147 0
46 -165 -161 0
46 -165 -189 0
46 -165 -203 0
46 -165 -217 0
46 -179 -105 0
46 -179 -119 0
46 -179 -133 0
46 -179 -147 0
46 -179 -161 0
46 -179 -175 0
46 -179 -203 0
46 -179 -217 0
46 -193 -105 0
46 -193 -119 0
46 -193 -133 0
46 -193 -147 0
46 -193 -161 0
46 -193 -175 0
46 -193 -189 0
46 -193 -217 0
46 -207 -105 0
46 -207 -119 0
46 -207 -133 0
46 -207 -147 0
46 -207 -161 0
46 -207 -175 0
46 -207 -189 0
46 -207 -203 0
47 -96 -111 0
47 -96 -125 0
47 -96 -139 0
47 -96 -153 0
47 -96 -167 0
47 -96 -181 0
47 -96 -195 0
47 -96 -209 0
47 -110 -97 0
47 -110 -125 0
47 -110 -139 0
47 -110 -153 0
47 -110 -167 0
47 -110 -181 0
47 -110 -195 0
47 -110 -209 0
47 -124 -97 0
47 -124 -111 0
47 -124 -139 0
47 -124 -153 0
47 -124 -167 0
47 -124 -181 0
47 -124 -195 0
47 -124 -209 0
47 -138 -97 0
47 -138 -111 0
47 -138 -125 0
47 -138 -153 0
47 -138 -167 0
47 -138 -181 0
47 -138 -195 0
47 -138 -209 0
47 -152 -97 0
47 -152 -111 0
47 -152 -125 0
47 -152 -139 0
47 -152 -167 0
47 -152 -181 0
47 -152 -195 0
47 -152 -209 0
47 -166 -97 0
47 -166 -111 0
47 -166 -125 0
47 -166 -139 0
47 -166 -153 0
47 -166 -181 0
47 -166 -195 0
47 -166 -209 0
47 -180 -97 0
47 -180 -111 0
47 -180 -125 0
47 -180 -139 0
47 -180 -153 0
47 -180 -167 0
47 -180 -195 0
47 -180 -209 0
47 -194 -97 0
47 -194 -111 0
47 -194 -125 0
47 -194 -139 0
47 -194 -153 0
47 -194 -167 0
47 -194 -181 0
47 -194 -209 0
47 -208 -97 0
47 -208 -111 0
47 -208 -125 0
47 -208 -139 0
47 -208 -153 0
47 -208 -167 0
47 -208 -181 0
47 -208 -195 0
48 -96 -112 0
48 -96 -126 0
48 -96 -140 0
48 -96 -154 0
48 -96 -168 0
48 -96 -182 0
48 -96 -196 0
48 -96 -210 0
48 -110 -98 0
48 -110 -126 0
48 -110 -140 0
48 -110 -154 0
48 -110 -168 0
48 -110 -182 0
48 -110 -196 0
48 -110 -210 0
48 -124 -98 0
48 -124 -112 0
48 -124 -140 0
48 -124 -154 0
48 -124 -168 0
48 -124 -182 0
48 -124 -196 0
48 -124 -210 0
48 -138 -98 0
48 -138 -112 0
48 -138 -126 0
48 -138 -154 0
48 -138 -168 0
48 -138 -182 0
48 -138 -196 0
48 -138 -210 0
48 -152 -98 0
48 -152 -112 0
48 -152 -126 0
48 -152 -140 0
48 -152 -168 0
48 -152 -182 0
48 -152 -196 0
48 -152 -210 0
48 -166 -98 0
48 -166 -112 0
48 -166 -126 0
48 -166 -140 0
48 -166 -154 0
48 -166 -182 0
48 -166 -196 0
48 -166 -210 0
48 -180 -98 0
48 -180 -112 0
48 -180 -126 0
48 -180 -140 0
48 -180 -154 0
48 -180 -168 0
48 -180 -196 0
48 -180 -210 0
48 -194 -98 0
48 -194 -112 0
48 -194 -126 0
48 -194 -140 0
48 -194 -154 0
48 -194 -168 0
48 -194 -182 0
48 -194 -210 0
48 -208 -98 0
48 -208 -112 0
48 -208 -126 0
48 -208 -140 0
48 -208 -154 0
48 -208 -168 0
48 -208 -182 0
48 -208 -196 0
49 -96 -113 0
49 -96 -127 0
49 -96 -141 0
49 -96 -155 0
49 -96 -169 0
49 -96 -183 0
49 -96 -197 0
49 -96 -211 0
49 -110 -99 0
49 -110 -127 0
49 -110 -141 0
49 -110 -155 0
49 -110 -169 0
49 -110 -183 0
49 -110 -197 0
49 -110 -211 0
49 -124 -99 0
49 -124 -113 0
49 -124 -141 0
49 -124 -155 0
49 -124 -169 0
49 -124 -183 0
49 -124 -197 0
49 -124 -211 0
49 -138 -99 0
49 -138 -113 0
49 -138 -127 0
49 -138 -155 0
49 -138 -169 0
49 -138 -183 0
49 -138 -197 0
49 -138 -211 0
49 -152 -99 0
49 -152 -113 0
49 -152 -127 0
49 -152 -141 0
49 -152 -169 0
49 -152 -183 0
49 -152 -197 0
49 -152 -211 0
49 -166 -99 0
49 -166 -113 0
49 -166 -127 0
49 -166 -141 0
49 -166 -155 0
49 -166 -183 0
49 -166 -197 0
49 -166 -211 0
49 -180 -99 0
49 -180 -113 0
49 -180 -127 0
49 -180 -141 0
49 -180 -155 0
49 -180 -169 0
49 -180 -197 0
49 -180 -211 0
49 -194 -99 0
49 -194 -113 0
49 -194 -127 0
49 -194 -141 0
49 -194 -155 0
49 -194 -169 0
49 -194 -183 0
49 -194 -211 0
49 -208 -99 0
49 -208 -113 0
49 -208 -127 0
49 -208 -141 0
49 -208 -155 0
49 -208 -169 0
49 -208 -183 0
49 -208 -197 0
50 -96 -114 0
50 -96 -128 0
50 -96 -142 0
50 -96 -156 0
50 -96 -170 0
50 -96 -184 0
50 -96 -198 0
50 -96 -212 0
50 -110 -100 0
50 -110 -128 0
50 -110 -142 0
50 -110 -156 0
50 -110 -170 0
50 -110 -184 0
50 -110 -198 0
50 -110 -212 0
50 -124 -100 0
50 -124 -114 0
50 -124 -142 0
50 -124 -156 0
50 -124 -170 0
50 -124 -184 0
50 -124 -198 0
50 -124 -212 0
50 -138 -100 0
50 -138 -114 0
50 -138 -128 0
50 -138 -156 0
50 -138 -170 0
50 -138 -184 0
50 -138 -198 0
50 -138 -212 0
50 -152 -100 0
50 -152 -114 0
50 -152 -128 0
50 -152 -142 0
50 -152 -170 0
50 -152 -184 0
50 -152 -198 0
50 -152 -212 0
50 -166 -100 0
50 -166 -114 0
50 -166 -128 0
50 -166 -142 0
50 -166 -156 0
50 -166 -184 0
50 -166 -198 0
50 -166 -212 0
50 -180 -100 0
50 -180 -114 0
50 -180 -128 0
50 -180 -142 0
50 -180 -156 0
50 -180 -170 0
50 -180 -198 0
50 -180 -212 0
50 -194 -100 0
50 -194 -114 0
50 -194 -128 0
50 -194 -142 0
50 -194 -156 0
50 -194 -170 0
50 -194 -184 0
50 -194 -212 0
50 -208 -100 0
50 -208 -114 0
50 -208 -128 0
50 -208 -142 0
50 -208 -156 0
50 -208 -170 0
50 -208 -184 0
50 -208 -198 0
51 -96 -115 0
51 -96 -129 0
51 -96 -143 0
51 -96 -157 0
51 -96 -171 0
51 -96 -185 0
51 -96 -199 0
51 -96 -213 0
51 -110 -101 0
51 -110 -129 0
51 -110 -143 0
51 -110 -157 0
51 -110 -171 0
51 -110 -185 0
51 -110 -199 0
51 -110 -213 0
51 -124 -101 0
51 -124 -115 0
51 -124 -143 0
51 -124 -157 0
51 -124 -171 0
51 -124 -185 0
51 -124 -199 0
51 -124 -213 0
51 -138 -101 0
51 -138 -115 0
51 -138 -129 0
51 -138 -157 0
51 -138 -171 0
51 -138 -185 0
51 -138 -199 0
51 -138 -213 0
51 -152 -101 0
51 -152 -115 0
51 -152 -129 0
51 -152 -143 0
51 -152 -171 0
51 -152 -185 0
51 -152 -199 0
51 -152 -213 0
51 -166 -101 0
51 -166 -115 0
51 -166 -129 0
51 -166 -143 0
51 -166 -157 0
51 -166 -185 0
51 -166 -199 0
51 -166 -213 0
51 -180 -101 0
51 -180 -115 0
51 -180 -129 0
51 -180 -143 0
51 -180 -157 0
51 -180 -171 0
51 -180 -199 0
51 -180 -213 0
51 -194 -101 0
51 -194 -115 0
51 -194 -129 0
51 -194 -143 0
51 -194 -157 0
51 -194 -171 0
51 -194 -185 0
51 -194 -213 0
51 -208 -101 0
51 -208 -115 0
51 -208 -129 0
51 -208 -143 0
51 -208 -157 0
51 -208 -171 0
51 -208 -185 0
51 -208 -199 0
52 -96 -116 0
52 -96 -130 0
52 -96 -144 0
52 -96 -158 0
52 -96 -172 0
52 -96 -186 0
52 -96 -200 0
52 -96 -214 0
52 -110 -102 0
52 -110 -130 0
52 -110 -144 0
52 -110 -158 0
52 -110 -172 0
52 -110 -186 0
52 -110 -200 0
52 -110 -214 0
52 -124 -102 0
52 -124 -116 0
52 -124 -144 0
52 -124 -158 0
52 -124 -172 0
52 -124 -186 0
52 -124 -200 0
52 -124 -214 0
52 -138 -102 0
52 -138 -116 0
52 -138 -130 0
52 -138 -158 0
52 -138 -172 0
52 -138 -186 0
52 -138 -200 0
52 -138 -214 0
52 -152 -102 0
52 -152 -116 0
52 -152 -130 0
52 -152 -144 0
52 -152 -172 0
52 -152 -186 0
52 -152 -200 0
52 -152 -214 0
52 -166 -102 0
52 -166 -116 0
52 -166 -130 0
52 -166 -144 0
52 -166 -158 0
52 -166 -186 0
52 -166 -200 0
52 -166 -214 0
52 -180 -102 0
52 -180 -116 0
52 -180 -130 0
52 -180 -144 0
52 -180 -158 0
52 -180 -172 0
52 -180 -200 0
52 -180 -214 0
52 -194 -102 0
52 -194 -116 0
52 -194 -130 0
52 -194 -144 0
52 -194 -158 0
52 -194 -172 0
52 -194 -186 0
52 -194 -214 0
52 -208 -102 0
52 -208 -116 0
52 -208 -130 0
52 -208 -144 0
52 -208 -158 0
52 -208 -172 0
52 -208 -186 0
52 -208 -200 0
53 -96 -117 0
53 -96 -131 0
53 -96 -145 0
53 -96 -159 0
53 -96 -173 0
53 -96 -187 0
53 -96 -201 0
53 -96 -215 0
53 -110 -103 0
53 -110 -131 0
53 -110 -145 0
53 -110 -159 0
53 -110 -173 0
53 -110 -187 0
53 -110 -201 0
53 -110 -215 0
53 -124 -103 0
53 -124 -117 0
53 -124 -145 0
53 -124 -159 0
53 -124 -173 0
53 -124 -187 0
53 -124 -201 0
53 -124 -215 0
53 -138 -103 0
53 -138 -117 0
53 -138 -131 0
53 -138 -159 0
53 -138 -173 0
53 -138 -187 0
53 -138 -201 0
53 -138 -215 0
53 -152 -103 0
53 -152 -117 0
53 -152 -131 0
53 -152 -145 0
53 -152 -173 0
53 -152 -187 0
53 -152 -201 0
53 -152 -215 0
53 -166 -103 0
53 -166 -117 0
53 -166 -131 0
53 -166 -145 0
53 -166 -159 0
53 -166 -187 0
53 -166 -201 0
53 -166 -215 0
53 -180 -103 0
53 -180 -117 0
53 -180 -131 0
53 -180 -145 0
53 -180 -159 0
53 -180 -173 0
53 -180 -201 0
53 -180 -215 0
53 -194 -103 0
53 -194 -117 0
53 -194 -131 0
53 -194 -145 0
53 -194 -159 0
53 -194 -173 0
53 -194 -187 0
53 -194 -215 0
53 -208 -103 0
53 -208 -117 0
53 -208 -131 0
53 -208 -145 0
53 -208 -159 0
53 -208 -173 0
53 -208 -187 0
53 -208 -201 0
54 -96 -118 0
54 -96 -132 0
54 -96 -146 0
54 -96 -160 0
54 -96 -174 0
54 -96 -188 0
54 -96 -202 0
54 -96 -216 0
54 -110 -104 0
54 -110 -132 0
54 -110 -146 0
54 -110 -160 0
54 -110 -174 0
54 -110 -188 0
54 -110 -202 0
54 -110 -216 0
54 -124 -104 0
54 -124 -118 0
54 -124 -146 0
54 -124 -160 0
54 -124 -174 0
54 -124 -188 0
54 -124 -202 0
54 -124 -216 0
54 -138 -104 0
54 -138 -118 0
54 -138 -132 0
54 -138 -160 0
54 -138 -174 0
54 -138 -188 0
54 -138 -202 0
54 -138 -216 0
54 -152 -104 0
54 -152 -118 0
54 -152 -132 0
54 -152 -146 0
54 -152 -174 0
54 -152 -188 0
54 -152 -202 0
54 -152 -216 0
54 -166 -104 0
54 -166 -118 0
54 -166 -132 0
54 -166 -146 0
54 -166 -160 0
54 -166 -188 0
54 -166 -202 0
54 -166 -216 0
54 -180 -104 0
54 -180 -118 0
54 -180 -132 0
54 -180 -146 0
54 -180 -160 0
54 -180 -174 0
54 -180 -202 0
54 -180 -216 0
54 -194 -104 0
54 -194 -118 0
54 -194 -132 0
54 -194 -146 0
54 -194 -160 0
54 -194 -174 0
54 -194 -188 0
54 -194 -216 0
54 -208 -104 0
54 -208 -118 0
54 -208 -132 0
54 -208 -146 0
54 -208 -160 0
54 -208 -174 0
54 -208 -188 0
54 -208 -202 0
55 -96 -119 0
55 -96 -133 0
55 -96 -147 0
55 -96 -161 0
55 -96 -175 0
55 -96 -189 0
55 -96 -203 0
55 -96 -217 0
55 -110 -105 0
55 -110 -133 0
55 -110 -147 0
55 -110 -161 0
55 -110 -175 0
55 -110 -189 0
55 -110 -203 0
55 -110 -217 0
55 -124 -105 0
55 -124 -119 0
55 -124 -147 0
55 -124 -161 0
55 -124 -175 0
55 -124 -189 0
55 -124 -203 0
55 -124 -217 0
55 -138 -105 0
55 -138 -119 0
55 -138 -133 0
55 -138 -161 0
55 -138 -175 0
55 -138 -189 0
55 -138 -203 0
55 -138 -217 0
55 -152 -105 0
55 -152 -119 0
55 -152 -133 0
55 -152 -147 0
55 -152 -175 0
55 -152 -189 0
55 -152 -203 0
55 -152 -217 0
55 -166 -105 0
55 -166 -119 0
55 -166 -133 0
55 -166 -147 0
55 -166 -161 0
55 -166 -189 0
55 -166 -203 0
55 -166 -217 0
55 -180 -105 0
55 -180 -119 0
55 -180 -133 0
55 -180 -147 0
55 -180 -161 0
55 -180 -175 0
55 -180 -203 0
55 -180 -217 0
55 -194 -105 0
55 -194 -119 0
55 -194 -133 0
55 -194 -147 0
55 -194 -161 0
55 -194 -175 0
55 -194 -189 0
55 -194 -217 0
55 -208 -105 0
55 -208 -119 0
55 -208 -133 0
55 -208 -147 0
55 -208 -161 0
55 -208 -175 0
55 -208 -189 0
55 -208 -203 0
56 -97 -112 0
56 -97 -126 0
56 -97 -140 0
56 -97 -154 0
56 -97 -168 0
56 -97 -182 0
56 -97 -196 0
56 -97 -210 0
56 -111 -98 0
56 -111 -126 0
56 -111 -140 0
56 -111 -154 0
56 -111 -168 0
56 -111 -182 0
56 -111 -196 0
56 -111 -210 0
56 -125 -98 0
56 -125 -112 0
56 -125 -140 0
56 -125 -154 0
56 -125 -168 0
56 -125 -182 0
56 -125 -196 0
56 -125 -210 0
56 -139 -98 0
56 -139 -112 0
56 -139 -126 0
56 -139 -154 0
56 -139 -168 0
56 -139 -182 0
56 -139 -196 0
56 -139 -210 0
56 -153 -98 0
56 -153 -112 0
56 -153 -126 0
56 -153 -140 0
56 -153 -168 0
56 -153 -182 0
56 -153 -196 0
56 -153 -210 0
56 -167 -98 0
56 -167 -112 0
56 -167 -126 0
56 -167 -140 0
56 -167 -154 0
56 -167 -182 0
56 -167 -196 0
56 -167 -210 0
56 -181 -98 0
56 -181 -112 0
56 -181 -126 0
56 -181 -140 0
56 -181 -154 0
56 -181 -168 0
56 -181 -196 0
56 -181 -210 0
56 -195 -98 0
56 -195 -112 0
56 -195 -126 0
56 -195 -140 0
56 -195 -154 0
56 -195 -168 0
56 -195 -182 0
56 -195 -210 0
56 -209 -98 0
56 -209 -112 0
56 -209 -126 0
56 -209 -140 0
56 -209 -154 0
56 -209 -168 0
56 -209 -182 0
56 -209 -196 0
57 -97 -113 0
57 -97 -127 0
57 -97 -141 0
57 -97 -155 0
57 -97 -169 0
57 -97 -183 0
57 -97 -197 0
57 -97 -211 0
57 -111 -99 0
57 -111 -127 0
57 -111 -141 0
57 -111 -155 0
57 -111 -169 0
57 -111 -183 0
57 -111 -197 0
57 -111 -211 0
57 -125 -99 0
57 -125 -113 0
57 -125 -141 0
57 -125 -155 0
57 -125 -169 0
57 -125 -183 0
57 -125 -197 0
57 -125 -211 0
57 -139 -99 0
57 -139 -113 0
57 -139 -127 0
57 -139 -155 0
57 -139 -169 0
57 -139 -183 0
57 -139 -197 0
57 -139 -211 0
57 -153 -99 0
57 -153 -113 0
57 -153 -127 0
57 -153 -141 0
57 -153 -169 0
57 -153 -183 0
57 -153 -197 0
57 -153 -211 0
57 -167 -99 0
57 -167 -113 0
57 -167 -127 0
57 -167 -141 0
57 -167 -155 0
57 -167 -183 0
57 -167 -197 0
57 -167 -211 0
57 -181 -99 0
57 -181 -113 0
57 -181 -127 0
57 -181 -141 0
57 -181 -155 0
57 -181 -169 0
57 -181 -197 0
57 -181 -211 0
57 -195 -99 0
57 -195 -113 0
57 -195 -127 0
57 -195 -141 0
57 -195 -155 0
57 -195 -169 0
57 -195 -183 0
57 -195 -211 0
57 -209 -99 0
57 -209 -113 0
57 -209 -127 0
57 -209 -141 0
57 -209 -155 0
57 -209 -169 0
57 -209 -183 0
57 -209 -197 0
58 -97 -114 0
58 -97 -128 0
58 -97 -142 0
58 -97 -156 0
58 -97 -170 0
58 -97 -184 0
58 -97 -198 0
58 -97 -212 0
58 -111 -100 0
58 -111 -128 0
58 -111 -142 0
58 -111 -156 0
58 -111 -170 0
58 -111 -184 0
58 -111 -198 0
58 -111 -212 0
58 -125 -100 0
58 -125 -114 0
58 -125 -142 0
58 -125 -156 0
58 -125 -170 0
58 -125 -184 0
58 -125 -198 0
58 -125 -212 0
58 -139 -100 0
58 -139 -114 0
58 -139 -128 0
58 -139 -156 0
58 -139 -170 0
58 -139 -184 0
58 -139 -198 0
58 -139 -212 0
58 -153 -100 0
58 -153 -114 0
58 -153 -128 0
58 -153 -142 0
58 -153 -170 0
58 -153 -184 0
58 -153 -198 0
58 -153 -212 0
58 -167 -100 0
58 -167 -114 0
58 -167 -128 0
58 -167 -142 0
58 -167 -156 0
58 -167 -184 0
58 -167 -198 0
58 -167 -212 0
58 -181 -100 0
58 -181 -114 0
58 -181 -128 0
58 -181 -142 0
58 -181 -156 0
58 -181 -170 0
58 -181 -198 0
58 -181 -212 0
58 -195 -100 0
58 -195 -114 0
58 -195 -128 0
58 -195 -142 0
58 -195 -156 0
58 -195 -170 0
58 -195 -184 0
58 -195 -212 0
58 -209 -100 0
58 -209 -114 0
58 -209 -128 0
58 -209 -142 0
58 -209 -156 0
58 -209 -170 0
58 -209 -184 0
58 -209 -198 0
59 -97 -115 0
59 -97 -129 0
59 -97 -143 0
59 -97 -157 0
59 -97 -171 0
59 -97 -185 0
59 -97 -199 0
59 -97 -213 0
59 -111 -101 0
59 -111 -129 0
59 -111 -143 0
59 -111 -157 0
59 -111 -171 0
59 -111 -185 0
59 -111 -199 0
59 -111 -213 0
59 -125 -101 0
59 -125 -115 0
59 -125 -143 0
59 -125 -157 0
59 -125 -171 0
59 -125 -185 0
59 -125 -199 0
59 -125 -213 0
59 -139 -101 0
59 -139 -115 0
59 -139 -129 0
59 -139 -157 0
59 -139 -171 0
59 -139 -185 0
59 -139 -199 0
59 -139 -213 0
59 -153 -101 0
59 -153 -115 0
59 -153 -129 0
59 -153 -143 0
59 -153 -171 0
59 -153 -185 0
59 -153 -199 0
59 -153 -213 0
59 -167 -101 0
59 -167 -115 0
59 -167 -129 0
59 -167 -143 0
59 -167 -157 0
59 -167 -185 0
59 -167 -199 0
59 -167 -213 0
59 -181 -101 0
59 -181 -115 0
59 -181 -129 0
59 -181 -143 0
59 -181 -157 0
59 -181 -171 0
59 -181 -199 0
59 -181 -213 0
59 -195 -101 0
59 -195 -115 0
59 -195 -129 0
59 -195 -143 0
59 -195 -157 0
59 -195 -171 0
59 -195 -185 0
59 -195 -213 0
59 -209 -101 0
59 -209 -115 0
59 -209 -129 0
59 -209 -143 0
59 -209 -157 0
59 -209 -171 0
59 -209 -185 0
59 -209 -199 0
60 -97 -116 0
60 -97 -130 0
60 -97 -144 0
60 -97 -158 0
60 -97 -172 0
60 -97 -186 0
60 -97 -200 0
60 -97 -214 0
60 -111 -102 0
60 -111 -130 0
60 -111 -144 0
60 -111 -158 0
60 -111 -172 0
60 -111 -186 0
60 -111 -200 0
60 -111 -214 0
60 -125 -102 0
60 -125 -116 0
60 -125 -144 0
60 -125 -158 0
60 -125 -172 0
60 -125 -186 0
60 -125 -200 0
60 -125 -214 0
60 -139 -102 0
60 -139 -116 0
60 -139 -130 0
60 -139 -158 0
60 -139 -172 0
60 -139 -186 0
60 -139 -200 0
60 -139 -214 0
60 -153 -102 0
60 -153 -116 0
60 -153 -130 0
60 -153 -144 0
60 -153 -172 0
60 -153 -186 0
60 -153 -200 0
60 -153 -214 0
60 -167 -102 0
60 -167 -116 0
60 -167 -130 0
60 -167 -144 0
60 -167 -158 0
60 -167 -186 0
60 -167 -200 0
60 -167 -214 0
60 -181 -102 0
60 -181 -116 0
60 -181 -130 0
60 -181 -144 0
60 -181 -158 0
60 -181 -172 0
60 -181 -200 0
60 -181 -214 0
60 -195 -102 0
60 -195 -116 0
60 -195 -130 0
60 -195 -144 0
60 -195 -158 0
60 -195 -172 0
60 -195 -186 0
60 -195 -214 0
60 -209 -102 0
60 -209 -116 0
60 -209 -130 0
60 -209 -144 0
60 -209 -158 0
60 -209 -172 0
60 -209 -186 0
60 -209 -200 0
61 -97 -117 0
61 -97 -131 0
61 -97 -145 0
61 -97 -159 0
61 -97 -173 0
61 -97 -187 0
61 -97 -201 0
61 -97 -215 0
61 -111 -103 0
61 -111 -131 0
61 -111 -145 0
61 -111 -159 0
61 -111 -173 0
61 -111 -187 0
61 -111 -201 0
61 -111 -215 0
61 -125 -103 0
61 -125 -117 0
61 -125 -145 0
61 -125 -159 0
61 -125 -173 0
61 -125 -187 0
61 -125 -201 0
61 -125 -215 0
61 -139 -103 0
61 -139 -117 0
61 -139 -131 0
61 -139 -159 0
61 -139 -173 0
61 -139 -187 0
61 -139 -201 0
61 -139 -215 0
61 -153 -103 0
61 -153 -117 0
61 -153 -131 0
61 -153 -145 0
61 -153 -173 0
61 -153 -187 0
61 -153 -201 0
61 -153 -215 0
61 -167 -103 0
61 -167 -117 0
61 -167 -131 0
61 -167 -145 0
61 -167 -159 0
61 -167 -187 0
61 -167 -201 0
61 -167 -215 0
61 -181 -103 0
61 -181 -117 0
61 -181 -131 0
61 -181 -145 0
61 -181 -159 0
61 -181 -173 0
61 -181 -201 0
61 -181 -215 0
61 -195 -103 0
61 -195 -117 0
61 -195 -131 0
61 -195 -145 0
61 -195 -159 0
61 -195 -173 0
61 -195 -187 0
61 -195 -215 0
61 -209 -103 0
61 -209 -117 0
61 -209 -131 0
61 -209 -145 0
61 -209 -159 0
61 -209 -173 0
61 -209 -187 0
61 -209 -201 0
62 -97 -118 0
62 -97 -132 0
62 -97 -146 0
62 -97 -160 0
62 -97 -174 0
62 -97 -188 0
62 -97 -202 0
62 -97 -216 0
62 -111 -104 0
62 -111 -132 0
62 -111 -146 0
62 -111 -160 0
62 -111 -174 0
62 -111 -188 0
62 -111 -202 0
62 -111 -216 0
62 -125 -104 0
62 -125 -118 0
62 -125 -146 0
62 -125 -160 0
62 -125 -174 0
62 -125 -188 0
62 -125 -202 0
62 -125 -216 0
62 -139 -104 0
62 -139 -118 0
62 -139 -132 0
62 -139 -160 0
62 -139 -174 0
62 -139 -188 0
62 -139 -202 0
62 -139 -216 0
62 -153 -104 0
62 -153 -118 0
62 -153 -132 0
62 -153 -146 0
62 -153 -174 0
62 -153 -188 0
62 -153 -202 0
62 -153 -216 0
62 -167 -104 0
62 -167 -118 0
62 -167 -132 0
62 -167 -146 0
62 -167 -160 0
62 -167 -188 0
62 -167 -202 0
62 -167 -216 0
62 -181 -104 0
62 -181 -118 0
62 -181 -132 0
62 -181 -146 0
62 -181 -160 0
62 -181 -174 0
62 -181 -202 0
62 -181 -216 0
62 -195 -104 0
62 -195 -118 0
62 -195 -132 0
62 -195 -146 0
62 -195 -160 0
62 -195 -174 0
62 -195 -188 0
62 -195 -216 0
62 -209 -104 0
62 -209 -118 0
62 -209 -132 0
62 -209 -146 0
62 -209 -160 0
62 -209 -174 0
62 -209 -188 0
62 -209 -202 0
63 -97 -119 0
63 -97 -133 0
63 -97 -147 0
63 -97 -161 0
63 -97 -175 0
63 -97 -189 0
63 -97 -203 0
63 -97 -217 0
63 -111 -105 0
63 -111 -133 0
63 -111 -147 0
63 -111 -161 0
63 -111 -175 0
63 -111 -189 0
63 -111 -203 0
63 -111 -217 0
63 -125 -105 0
63 -125 -119 0
63 -125 -147 0
63 -125 -161 0
63 -125 -175 0
63 -125 -189 0
63 -125 -203 0
63 -125 -217 0
63 -139 -105 0
63 -139 -119 0
63 -139 -133 0
63 -139 -161 0
63 -139 -175 0
63 -139 -189 0
63 -139 -203 0
63 -139 -217 0
63 -153 -105 0
63 -153 -119 0
63 -153 -133 0
63 -153 -147 0
63 -153 -175 0
63 -153 -189 0
63 -153 -203 0
63 -153 -217 0
63 -167 -105 0
63 -167 -119 0
63 -167 -133 0
63 -167 -147 0
63 -167 -161 0
63 -167 -189 0
63 -167 -203 0
63 -167 -217 0
63 -181 -105 0
63 -181 -119 0
63 -181 -133 0
63 -181 -147 0
63 -181 -161 0
63 -181 -175 0
63 -181 -203 0
63 -181 -217 0
63 -195 -105 0
63 -195 -119 0
63 -195 -133 0
63 -195 -147 0
63 -195 -161 0
63 -195 -175 0
63 -195 -189 0
63 -195 -217 0
63 -209 -105 0
63 -209 -119 0
63 -209 -133 0
63 -209 -147 0
63 -209 -161 0
63 -209 -175 0
63 -209 -189 0
63 -209 -203 0
64 -98 -113 0
64 -98 -127 0
64 -98 -141 0
64 -98 -155 0
64 -98 -169 0
64 -98 -183 0
64 -98 -197 0
64 -98 -211 0
64 -112 -99 0
64 -112 -127 0
64 -112 -141 0
64 -112 -155 0
64 -112 -169 0
64 -112 -183 0
64 -112 -197 0
64 -112 -211 0
64 -126 -99 0
64 -126 -113 0
64 -126 -141 0
64 -126 -155 0
64 -126 -169 0
64 -126 -183 0
64 -126 -197 0
64 -126 -211 0
64 -140 -99 0
64 -140 -113 0
64 -140 -127 0
64 -140 -155 0
64 -140 -169 0
64 -140 -183 0
64 -140 -197 0
64 -140 -211 0
64 -154 -99 0
64 -154 -113 0
64 -154 -127 0
64 -154 -141 0
64 -154 -169 0
64 -154 -183 0
64 -154 -197 0
64 -154 -211 0
64 -168 -99 0
64 -168 -113 0
64 -168 -127 0
64 -168 -141 0
64 -168 -155 0
64 -168 -183 0
64 -168 -197 0
64 -168 -211 0
64 -182 -99 0
64 -182 -113 0
64 -182 -127 0
64 -182 -141 0
64 -182 -155 0
64 -182 -169 0
64 -182 -197 0
64 -182 -211 0
64 -196 -99 0
64 -196 -113 0
64 -196 -127 0
64 -196 -141 0
64 -196 -155 0
64 -196 -169 0
64 -196 -183 0
64 -196 -211 0
64 -210 -99 0
64 -210 -113 0
64 -210 -127 0
64 -210 -141 0
64 -210 -155 0
64 -210 -169 0
64 -210 -183 0
64 -210 -197 0
65 -98 -114 0
65 -98 -128 0
65 -98 -142 0
65 -98 -156 0
65 -98 -170 0
65 -98 -184 0
65 -98 -198 0
65 -98 -212 0
65 -112 -100 0
65 -112 -128 0
65 -112 -142 0
65 -112 -156 0
65 -112 -170 0
65 -112 -184 0
65 -112 -198 0
65 -112 -212 0
65 -126 -100 0
65 -126 -114 0
65 -126 -142 0
65 -126 -156 0
65 -126 -170 0
65 -126 -184 0
65 -126 -198 0
65 -126 -212 0
65 -140 -100 0
65 -140 -114 0
65 -140 -128 0
65 -140 -156 0
65 -140 -170 0
65 -140 -184 0
65 -140 -198 0
65 -140 -212 0
65 -154 -100 0
65 -154 -114 0
65 -154 -128 0
65 -154 -142 0
65 -154 -170 0
65 -154 -184 0
65 -154 -198 0
65 -154 -212 0
65 -168 -100 0
65 -168 -114 0
65 -168 -128 0
65 -168 -142 0
65 -168 -156 0
65 -168 -184 0
65 -168 -198 0
65 -168 -212 0
65 -182 -100 0
65 -182 -114 0
65 -182 -128 0
65 -182 -142 0
65 -182 -156 0
65 -182 -170 0
65 -182 -198 0
65 -182 -212 0
65 -196 -100 0
65 -196 -114 0
65 -196 -128 0
65 -196 -142 0
65 -196 -156 0
65 -196 -170 0
65 -196 -184 0
65 -196 -212 0
65 -210 -100 0
65 -210 -114 0
65 -210 -128 0
65 -210 -142 0
65 -210 -156 0
65 -210 -170 0
65 -210 -184 0
65 -210 -198 0
66 -98 -115 0
66 -98 -129 0
66 -98 -143 0
66 -98 -157 0
66 -98 -171 0
66 -98 -185 0
66 -98 -199 0
66 -98 -213 0
66 -112 -101 0
66 -112 -129 0
66 -112 -143 0
66 -112 -157 0
66 -112 -171 0
66 -112 -185 0
66 -112 -199 0
66 -112 -213 0
66 -126 -101 0
66 -126 -115 0
66 -126 -143 0
66 -126 -157 0
66 -126 -171 0
66 -126 -185 0
66 -126 -199 0
66 -126 -213 0
66 -140 -101 0
66 -140 -115 0
66 -140 -129 0
66 -140 -157 0
66 -140 -171 0
66 -140 -185 0
66 -140 -199 0
66 -140 -213 0
66 -154 -101 0
66 -154 -115 0
66 -154 -129 0
66 -154 -143 0
66 -154 -171 0
66 -154 -185 0
66 -154 -199 0
66 -154 -213 0
66 -168 -101 0
66 -168 -115 0
66 -168 -129 0
66 -168 -143 0
66 -168 -157 0
66 -168 -185 0
66 -168 -199 0
66 -168 -213 0
66 -182 -101 0
66 -182 -115 0
66 -182 -129 0
66 -182 -143 0
66 -182 -157 0
66 -182 -171 0
66 -182 -199 0
66 -182 -213 0
66 -196 -101 0
66 -196 -115 0
66 -196 -129 0
66 -196 -143 0
66 -196 -157 0
66 -196 -171 0
66 -196 -185 0
66 -196 -213 0
66 -210 -101 0
66 -210 -115 0
66 -210 -129 0
66 -210 -143 0
66 -210 -157 0
66 -210 -171 0
66 -210 -185 0
66 -210 -199 0
67 -98 -116 0
67 -98 -130 0
67 -98 -144 0
67 -98 -158 0
67 -98 -172 0
67 -98 -186 0
67 -98 -200 0
67 -98 -214 0
67 -112 -102 0
67 -112 -130 0
67 -112 -144 0
67 -112 -158 0
67 -112 -172 0
67 -112 -186 0
67 -112 -200 0
67 -112 -214 0
67 -126 -102 0
67 -126 -116 0
67 -126 -144 0
67 -126 -158 0
67 -126 -172 0
67 -126 -186 0
67 -126 -200 0
67 -126 -214 0
67 -140 -102 0
67 -140 -116 0
67 -140 -130 0
67 -140 -158 0
67 -140 -172 0
67 -140 -186 0
67 -140 -200 0
67 -140 -214 0
67 -154 -102 0
67 -154 -116 0
67 -154 -130 0
67 -154 -144 0
67 -154 -172 0
67 -154 -186 0
67 -154 -200 0
67 -154 -214 0
67 -168 -102 0
67 -168 -116 0
67 -168 -130 0
67 -168 -144 0
67 -168 -158 0
67 -168 -186 0
67 -168 -200 0
67 -168 -214 0
67 -182 -102 0
67 -182 -116 0
67 -182 -130 0
67 -182 -144 0
67 -182 -158 0
67 -182 -172 0
67 -182 -200 0
67 -182 -214 0
67 -196 -102 0
67 -196 -116 0
67 -196 -130 0
67 -196 -144 0
67 -196 -158 0
67 -196 -172 0
67 -196 -186 0
67 -196 -214 0
67 -210 -102 0
67 -210 -116 0
67 -210 -130 0
67 -210 -144 0
67 -210 -158 0
67 -210 -172 0
67 -210 -186 0
67 -210 -200 0
68 -98 -117 0
68 -98 -131 0
68 -98 -145 0
68 -98 -159 0
68 -98 -173 0
68 -98 -187 0
68 -98 -201 0
68 -98 -215 0
68 -112 -103 0
68 -112 -131 0
68 -112 -145 0
68 -112 -159 0
68 -112 -173 0
68 -112 -187 0
68 -112 -201 0
68 -112 -215 0
68 -126 -103 0
68 -126 -117 0
68 -126 -145 0
68 -126 -159 0
68 -126 -173 0
68 -126 -187 0
68 -126 -201 0
68 -126 -215 0
68 -140 -103 0
68 -140 -117 0
68 -140 -131 0
68 -140 -159 0
68 -140 -173 0
68 -140 -187 0
68 -140 -201 0
68 -140 -215 0
68 -154 -103 0
68 -154 -117 0
68 -154 -131 0
68 -154 -145 0
68 -154 -173 0
68 -154 -187 0
68 -154 -201 0
68 -154 -215 0
68 -168 -103 0
68 -168 -117 0
68 -168 -131 0
68 -168 -145 0
68 -168 -159 0
68 -168 -187 0
68 -168 -201 0
68 -168 -215 0
68 -182 -103 0
68 -182 -117 0
68 -182 -131 0
68 -182 -145 0
68 -182 -159 0
68 -182 -173 0
68 -182 -201 0
68 -182 -215 0
68 -196 -103 0
68 -196 -117 0
68 -196 -131 0
68 -196 -145 0
68 -196 -159 0
68 -196 -173 0
68 -196 -187 0
68 -196 -215 0
68 -210 -103 0
68 -210 -117 0
68 -210 -131 0
68 -210 -145 0
68 -210 -159 0
68 -210 -173 0
68 -210 -187 0
68 -210 -201 0
69 -98 -118 0
69 -98 -132 0
69 -98 -146 0
69 -98 -160 0
69 -98 -174 0
69 -98 -188 0
69 -98 -202 0
69 -98 -216 0
69 -112 -104 0
69 -112 -132 0
69 -112 -146 0
69 -112 -160 0
69 -112 -174 0
69 -112 -188 0
69 -112 -202 0
69 -112 -216 0
69 -126 -104 0
69 -126 -118 0
69 -126 -146 0
69 -126 -160 0
69 -126 -174 0
69 -126 -188 0
69 -126 -202 0
69 -126 -216 0
69 -140 -104 0
69 -140 -118 0
69 -140 -132 0
69 -140 -160 0
69 -140 -174 0
69 -140 -188 0
69 -140 -202 0
69 -140 -216 0
69 -154 -104 0
69 -154 -118 0
69 -154 -132 0
69 -154 -146 0
69 -154 -174 0
69 -154 -188 0
69 -154 -202 0
69 -154 -216 0
69 -168 -104 0
69 -168 -118 0
69 -168 -132 0
69 -168 -146 0
69 -168 -160 0
69 -168 -188 0
69 -168 -202 0
69 -168 -216 0
69 -182 -104 0
69 -182 -118 0
69 -182 -132 0
69 -182 -146 0
69 -182 -160 0
69 -182 -174 0
69 -182 -202 0
69 -182 -216 0
69 -196 -104 0
69 -196 -118 0
69 -196 -132 0
69 -196 -146 0
69 -196 -160 0
69 -196 -174 0
69 -196 -188 0
69 -196 -216 0
69 -210 -104 0
69 -210 -118 0
69 -210 -132 0
69 -210 -146 0
69 -210 -160 0
69 -210 -174 0
69 -210 -188 0
69 -210 -202 0
70 -98 -119 0
70 -98 -133 0
70 -98 -147 0
70 -98 -161 0
70 -98 -175 0
70 -98 -189 0
70 -98 -203 0
70 -98 -217 0
70 -112 -105 0
70 -112 -133 0
70 -112 -147 0
70 -112 -161 0
70 -112 -175 0
70 -112 -189 0
70 -112 -203 0
70 -112 -217 0
70 -126 -105 0
70 -126 -119 0
70 -126 -147 0
70 -126 -161 0
70 -126 -175 0
70 -126 -189 0
70 -126 -203 0
70 -126 -217 0
70 -140 -105 0
70 -140 -119 0
70 -140 -133 0
70 -140 -161 0
70 -140 -175 0
70 -140 -189 0
70 -140 -203 0
70 -140 -217 0
70 -154 -105 0
70 -154 -119 0
70 -154 -133 0
70 -154 -147 0
70 -154 -175 0
70 -154 -189 0
70 -154 -203 0
70 -154 -217 0
70 -168 -105 0
70 -168 -119 0
70 -168 -133 0
70 -168 -147 0
70 -168 -161 0
70 -168 -189 0
70 -168 -203 0
70 -168 -217 0
70 -182 -105 0
70 -182 -119 0
70 -182 -133 0
70 -182 -147 0
70 -182 -161 0
70 -182 -175 0
70 -182 -203 0
70 -182 -217 0
70 -196 -105 0
70 -196 -119 0
70 -196 -133 0
70 -196 -147 0
70 -196 -161 0
70 -196 -175 0
70 -196 -189 0
70 -196 -217 0
70 -210 -105 0
70 -210 -119 0
70 -210 -133 0
70 -210 -147 0
70 -210 -161 0
70 -210 -175 0
70 -210 -189 0
70 -210 -203 0
71 -99 -114 0
71 -99 -128 0
71 -99 -142 0
71 -99 -156 0
71 -99 -170 0
71 -99 -184 0
71 -99 -198 0
71 -99 -212 0
71 -113 -100 0
71 -113 -128 0
71 -113 -142 0
71 -113 -156 0
71 -113 -170 0
71 -113 -184 0
71 -113 -198 0
71 -113 -212 0
71 -127 -100 0
71 -127 -114 0
71 -127 -142 0
71 -127 -156 0
71 -127 -170 0
71 -127 -184 0
71 -127 -198 0
71 -127 -212 0
71 -141 -100 0
71 -141 -114 0
71 -141 -128 0
71 -141 -156 0
71 -141 -170 0
71 -141 -184 0
71 -141 -198 0
71 -141 -212 0
71 -155 -100 0
71 -155 -114 0
71 -155 -128 0
71 -155 -142 0
71 -155 -170 0
71 -155 -184 0
71 -155 -198 0
71 -155 -212 0
71 -169 -100 0
71 -169 -114 0
71 -169 -128 0
71 -169 -142 0
71 -169 -156 0
71 -169 -184 0
71 -169 -198 0
71 -169 -212 0
71 -183 -100 0
71 -183 -114 0
71 -183 -128 0
71 -183 -142 0
71 -183 -156 0
71 -183 -170 0
71 -183 -198 0
71 -183 -212 0
71 -197 -100 0
71 -197 -114 0
71 -197 -128 0
71 -197 -142 0
71 -197 -156 0
71 -197 -170 0
71 -197 -184 0
71 -197 -212 0
71 -211 -100 0
71 -211 -114 0
71 -211 -128 0
71 -211 -142 0
71 -211 -156 0
71 -211 -170 0
71 -211 -184 0
71 -211 -198 0
72 -99 -115 0
72 -99 -129 0
72 -99 -143 0
72 -99 -157 0
72 -99 -171 0
72 -99 -185 0
72 -99 -199 0
72 -99 -213 0
72 -113 -101 0
72 -113 -129 0
72 -113 -143 0
72 -113 -157 0
72 -113 -171 0
72 -113 -185 0
72 -113 -199 0
72 -113 -213 0
72 -127 -101 0
72 -127 -115 0
72 -127 -143 0
72 -127 -157 0
72 -127 -171 0
72 -127 -185 0
72 -127 -199 0
72 -127 -213 0
72 -141 -101 0
72 -141 -115 0
72 -141 -129 0
72 -141 -157 0
72 -141 -171 0
72 -141 -185 0
72 -141 -199 0
72 -141 -213 0
72 -155 -101 0
72 -155 -115 0
72 -155 -129 0
72 -155 -143 0
72 -155 -171 0
72 -155 -185 0
72 -155 -199 0
72 -155 -213 0
72 -169 -101 0
72 -169 -115 0
72 -169 -129 0
72 -169 -143 0
72 -169 -157 0
72 -169 -185 0
72 -169 -199 0
72 -169 -213 0
72 -183 -101 0
72 -183 -115 0
72 -183 -129 0
72 -183 -143 0
72 -183 -157 0
72 -183 -171 0
72 -183 -199 0
72 -183 -213 0
72 -197 -101 0
72 -197 -115 0
72 -197 -129 0
72 -197 -143 0
72 -197 -157 0
72 -197 -171 0
72 -197 -185 0
72 -197 -213 0
72 -211 -101 0
72 -211 -115 0
72 -211 -129 0
72 -211 -143 0
72 -211 -157 0
72 -211 -171 0
72 -211 -185 0
72 -211 -199 0
73 -99 -116 0
73 -99 -130 0
73 -99 -144 0
73 -99 -158 0
73 -99 -172 0
73 -99 -186 0
73 -99 -200 0
73 -99 -214 0
73 -113 -102 0
73 -113 -130 0
73 -113 -144 0
73 -113 -158 0
73 -113 -172 0
73 -113 -186 0
73 -113 -200 0
73 -113 -214 0
73 -127 -102 0
73 -127 -116 0
73 -127 -144 0
73 -127 -158 0
73 -127 -172 0
73 -127 -186 0
73 -127 -200 0
73 -127 -214 0
73 -141 -102 0
73 -141 -116 0
73 -141 -130 0
73 -141 -158 0
73 -141 -172 0
73 -141 -186 0
73 -141 -200 0
73 -141 -214 0
73 -155 -102 0
73 -155 -116 0
73 -155 -130 0
73 -155 -144 0
73 -155 -172 0
73 -155 -186 0
73 -155 -200 0
73 -155 -214 0
73 -169 -102 0
73 -169 -116 0
73 -169 -130 0
73 -169 -144 0
73 -169 -158 0
73 -169 -186 0
73 -169 -200 0
73 -169 -214 0
73 -183 -102 0
73 -183 -116 0
73 -183 -130 0
73 -183 -144 0
73 -183 -158 0
73 -183 -172 0
73 -183 -200 0
73 -183 -214 0
73 -197 -102 0
73 -197 -116 0
73 -197 -130 0
73 -197 -144 0
73 -197 -158 0
73 -197 -172 0
73 -197 -186 0
73 -197 -214 0
73 -211 -102 0
73 -211 -116 0
73 -211 -130 0
73 -211 -144 0
73 -211 -158 0
73 -211 -172 0
73 -211 -186 0
73 -211 -200 0
74 -99 -117 0
74 -99 -131 0
74 -99 -145 0
74 -99 -159 0
74 -99 -173 0
74 -99 -187 0
74 -99 -201 0
74 -99 -215 0
74 -113 -103 0
74 -113 -131 0
74 -113 -145 0
74 -113 -159 0
74 -113 -173 0
74 -113 -187 0
74 -113 -201 0
74 -113 -215 0
74 -127 -103 0
74 -127 -117 0
74 -127 -145 0
74 -127 -159 0
74 -127 -173 0
74 -127 -187 0
74 -127 -201 0
74 -127 -215 0
74 -141 -103 0
74 -141 -117 0
74 -141 -131 0
74 -141 -159 0
74 -141 -173 0
74 -141 -187 0
74 -141 -201 0
74 -141 -215 0
74 -155 -103 0
74 -155 -117 0
74 -155 -131 0
74 -155 -145 0
74 -155 -173 0
74 -155 -187 0
74 -155 -201 0
74 -155 -215 0
74 -169 -103 0
74 -169 -117 0
74 -169 -131 0
74 -169 -145 0
74 -169 -159 0
74 -169 -187 0
74 -169 -201 0
74 -169 -215 0
74 -183 -103 0
74 -183 -117 0
74 -183 -131 0
74 -183 -145 0
74 -183 -159 0
74 -183 -173 0
74 -183 -201 0
74 -183 -215 0
74 -197 -103 0
74 -197 -117 0
74 -197 -131 0
74 -197 -145 0
74 -197 -159 0
74 -197 -173 0
74 -197 -187 0
74 -197 -215 0
74 -211 -103 0
74 -211 -117 0
74 -211 -131 0
74 -211 -145 0
74 -211 -159 0
74 -211 -173 0
74 -211 -187 0
74 -211 -201 0
75 -99 -118 0
75 -99 -132 0
75 -99 -146 0
75 -99 -160 0
75 -99 -174 0
75 -99 -188 0
75 -99 -202 0
75 -99 -216 0
75 -113 -104 0
75 -113 -132 0
75 -113 -146 0
75 -113 -160 0
75 -113 -174 0
75 -113 -188 0
75 -113 -202 0
75 -113 -216 0
75 -127 -104 0
75 -127 -118 0
75 -127 -146 0
75 -127 -160 0
75 -127 -174 0
75 -127 -188 0
75 -127 -202 0
75 -127 -216 0
75 -141 -104 0
75 -141 -118 0
75 -141 -132 0
75 -141 -160 0
75 -141 -174 0
75 -141 -188 0
75 -141 -202 0
75 -141 -216 0
75 -155 -104 0
75 -155 -118 0
75 -155 -132 0
75 -155 -146 0
75 -155 -174 0
75 -155 -188 0
75 -155 -202 0
75 -155 -216 0
75 -169 -104 0
75 -169 -118 0
75 -169 -132 0
75 -169 -146 0
75 -169 -160 0
75 -169 -188 0
75 -169 -202 0
75 -169 -216 0
75 -183 -104 0
75 -183 -118 0
75 -183 -132 0
75 -183 -146 0
75 -183 -160 0
75 -183 -174 0
75 -183 -202 0
75 -183 -216 0
75 -197 -104 0
75 -197 -118 0
75 -197 -132 0
75 -197 -146 0
75 -197 -160 0
75 -197 -174 0
75 -197 -188 0
75 -197 -216 0
75 -211 -104 0
75 -211 -118 0
75 -211 -132 0
75 -211 -146 0
75 -211 -160 0
75 -211 -174 0
75 -211 -188 0
75 -211 -202 0
76 -99 -119 0
76 -99 -133 0
76 -99 -147 0
76 -99 -161 0
76 -99 -175 0
76 -99 -189 0
76 -99 -203 0
76 -99 -217 0
76 -113 -105 0
76 -113 -133 0
76 -113 -147 0
76 -113 -161 0
76 -113 -175 0
76 -113 -189 0
76 -113 -203 0
76 -113 -217 0
76 -127 -105 0
76 -127 -119 0
76 -127 -147 0
76 -127 -161 0
76 -127 -175 0
76 -127 -189 0
76 -127 -203 0
76 -127 -217 0
76 -141 -105 0
76 -141 -119 0
76 -141 -133 0
76 -141 -161 0
76 -141 -175 0
76 -141 -189 0
76 -141 -203 0
76 -141 -217 0
76 -155 -105 0
76 -155 -119 0
76 -155 -133 0
76 -155 -147 0
76 -155 -175 0
76 -155 -189 0
76 -155 -203 0
76 -155 -217 0
76 -169 -105 0
76 -169 -119 0
76 -169 -133 0
76 -169 -147 0
76 -169 -161 0
76 -169 -189 0
76 -169 -203 0
76 -169 -217 0
76 -183 -105 0
76 -183 -119 0
76 -183 -133 0
76 -183 -147 0
76 -183 -161 0
76 -183 -175 0
76 -183 -203 0
76 -183 -217 0
76 -197 -105 0
76 -197 -119 0
76 -197 -133 0
76 -197 -147 0
76 -197 -161 0
76 -197 -175 0
76 -197 -189 0
76 -197 -217 0
76 -211 -105 0
76 -211 -119 0
76 -211 -133 0
76 -211 -147 0
76 -211 -161 0
76 -211 -175 0
76 -211 -189 0
76 -211 -203 0
77 -100 -115 0
77 -100 -129 0
77 -100 -143 0
77 -100 -157 0
77 -100 -171 0
77 -100 -185 0
77 -100 -199 0
77 -100 -213 0
77 -114 -101 0
77 -114 -129 0
77 -114 -143 0
77 -114 -157 0
77 -114 -171 0
77 -114 -185 0
77 -114 -199 0
77 -114 -213 0
77 -128 -101 0
77 -128 -115 0
77 -128 -143 0
77 -128 -157 0
77 -128 -171 0
77 -128 -185 0
77 -128 -199 0
77 -128 -213 0
77 -142 -101 0
77 -142 -115 0
77 -142 -129 0
77 -142 -157 0
77 -142 -171 0
77 -142 -185 0
77 -142 -199 0
77 -142 -213 0
77 -156 -101 0
77 -156 -115 0
77 -156 -129 0
77 -156 -143 0
77 -156 -171 0
77 -156 -185 0
77 -156 -199 0
77 -156 -213 0
77 -170 -101 0
77 -170 -115 0
77 -170 -129 0
77 -170 -143 0
77 -170 -157 0
77 -170 -185 0
77 -170 -199 0
77 -170 -213 0
77 -184 -101 0
77 -184 -115 0
77 -184 -129 0
77 -184 -143 0
77 -184 -157 0
77 -184 -171 0
77 -184 -199 0
77 -184 -213 0
77 -198 -101 0
77 -198 -115 0
77 -198 -129 0
77 -198 -143 0
77 -198 -157 0
77 -198 -171 0
77 -198 -185 0
77 -198 -213 0
77 -212 -101 0
77 -212 -115 0
77 -212 -129 0
77 -212 -143 0
77 -212 -157 0
77 -212 -171 0
77 -212 -185 0
77 -212 -199 0
78 -100 -116 0
78 -100 -130 0
78 -100 -144 0
78 -100 -158 0
78 -100 -172 0
78 -100 -186 0
78 -100 -200 0
78 -100 -214 0
78 -114 -102 0
78 -114 -130 0
78 -114 -144 0
78 -114 -158 0
78 -114 -172 0
78 -114 -186 0
78 -114 -200 0
78 -114 -214 0
78 -128 -102 0
78 -128 -116 0
78 -128 -144 0
78 -128 -158 0
78 -128 -172 0
78 -128 -186 0
78 -128 -200 0
78 -128 -214 0
78 -142 -102 0
78 -142 -116 0
78 -142 -130 0
78 -142 -158 0
78 -142 -172 0
78 -142 -186 0
78 -142 -200 0
78 -142 -214 0
78 -156 -102 0
78 -156 -116 0
78 -156 -130 0
78 -156 -144 0
78 -156 -172 0
78 -156 -186 0
78 -156 -200 0
78 -156 -214 0
78 -170 -102 0
78 -170 -116 0
78 -170 -130 0
78 -170 -144 0
78 -170 -158 0
78 -170 -186 0
78 -170 -200 0
78 -170 -214 0
78 -184 -102 0
78 -184 -116 0
78 -184 -130 0
78 -184 -144 0
78 -184 -158 0
78 -184 -172 0
78 -184 -200 0
78 -184 -214 0
78 -198 -102 0
78 -198 -116 0
78 -198 -130 0
78 -198 -144 0
78 -198 -158 0
78 -198 -172 0
78 -198 -186 0
78 -198 -214 0
78 -212 -102 0
78 -212 -116 0
78 -212 -130 0
78 -212 -144 0
78 -212 -158 0
78 -212 -172 0
78 -212 -186 0
78 -212 -200 0
79 -100 -117 0
79 -100 -131 0
79 -100 -145 0
79 -100 -159 0
79 -100 -173 0
79 -100 -187 0
79 -100 -201 0
79 -100 -215 0
79 -114 -103 0
79 -114 -131 0
79 -114 -145 0
79 -114 -159 0
79 -114 -173 0
79 -114 -187 0
79 -114 -201 0
79 -114 -215 0
79 -128 -103 0
79 -128 -117 0
79 -128 -145 0
79 -128 -159 0
79 -128 -173 0
79 -128 -187 0
79 -128 -201 0
79 -128 -215 0
79 -142 -103 0
79 -142 -117 0
79 -142 -131 0
79 -142 -159 0
79 -142 -173 0
79 -142 -187 0
79 -142 -201 0
79 -142 -215 0
79 -156 -103 0
79 -156 -117 0
79 -156 -131 0
79 -156 -145 0
79 -156 -173 0
79 -156 -187 0
79 -156 -201 0
79 -156 -215 0
79 -170 -103 0
79 -170 -117 0
79 -170 -131 0
79 -170 -145 0
79 -170 -159 0
79 -170 -187 0
79 -170 -201 0
79 -170 -215 0
79 -184 -103 0
79 -184 -117 0
79 -184 -131 0
79 -184 -145 0
79 -184 -159 0
79 -184 -173 0
79 -184 -201 0
79 -184 -215 0
79 -198 -103 0
79 -198 -117 0
79 -198 -131 0
79 -198 -145 0
79 -198 -159 0
79 -198 -173 0
79 -198 -187 0
79 -198 -215 0
79 -212 -103 0
79 -212 -117 0
79 -212 -131 0
79 -212 -145 0
79 -212 -159 0
79 -212 -173 0
79 -212 -187 0
79 -212 -201 0
80 -100 -118 0
80 -100 -132 0
80 -100 -146 0
80 -100 -160 0
80 -100 -174 0
80 -100 -188 0
80 -100 -202 0
80 -100 -216 0
80 -114 -104 0
80 -114 -132 0
80 -114 -146 0
80 -114 -160 0
80 -114 -174 0
80 -114 -188 0
80 -114 -202 0
80 -114 -216 0
80 -128 -104 0
80 -128 -118 0
80 -128 -146 0
80 -128 -160 0
80 -128 -174 0
80 -128 -188 0
80 -128 -202 0
80 -128 -216 0
80 -142 -104 0
80 -142 -118 0
80 -142 -132 0
80 -142 -160 0
80 -142 -174 0
80 -142 -188 0
80 -142 -202 0
80 -142 -216 0
80 -156 -104 0
80 -156 -118 0
80 -156 -132 0
80 -156 -146 0
80 -156 -174 0
80 -156 -188 0
80 -156 -202 0
80 -156 -216 0
80 -170 -104 0
80 -170 -118 0
80 -170 -132 0
80 -170 -146 0
80 -170 -160 0
80 -170 -188 0
80 -170 -202 0
80 -170 -216 0
80 -184 -104 0
80 -184 -118 0
80 -184 -132 0
80 -184 -146 0
80 -184 -160 0
80 -184 -174 0
80 -184 -202 0
80 -184 -216 0
80 -198 -104 0
80 -198 -118 0
80 -198 -132 0
80 -198 -146 0
80 -198 -160 0
80 -198 -174 0
80 -198 -188 0
80 -198 -216 0
80 -212 -104 0
80 -212 -118 0
80 -212 -132 0
80 -212 -146 0
80 -212 -160 0
80 -212 -174 0
80 -212 -188 0
80 -212 -202 0
81 -100 -119 0
81 -100 -133 0
81 -100 -147 0
81 -100 -161 0
81 -100 -175 0
81 -100 -189 0
81 -100 -203 0
81 -100 -217 0
81 -114 -105 0
81 -114 -133 0
81 -114 -147 0
81 -114 -161 0
81 -114 -175 0
81 -114 -189 0
81 -114 -203 0
81 -114 -217 0
81 -128 -105 0
81 -128 -119 0
81 -128 -147 0
81 -128 -161 0
81 -128 -175 0
81 -128 -189 0
81 -128 -203 0
81 -128 -217 0
81 -142 -105 0
81 -142 -119 0
81 -142 -133 0
81 -142 -161 0
81 -142 -175 0
81 -142 -189 0
81 -142 -203 0
81 -142 -217 0
81 -156 -105 0
81 -156 -119 0
81 -156 -133 0
81 -156 -147 0
81 -156 -175 0
81 -156 -189 0
81 -156 -203 0
81 -156 -217 0
81 -170 -105 0
81 -170 -119 0
81 -170 -133 0
81 -170 -147 0
81 -170 -161 0
81 -170 -189 0
81 -170 -203 0
81 -170 -217 0
81 -184 -105 0
81 -184 -119 0
81 -184 -133 0
81 -184 -147 0
81 -184 -161 0
81 -184 -175 0
81 -184 -203 0
81 -184 -217 0
81 -198 -105 0
81 -198 -119 0
81 -198 -133 0
81 -198 -147 0
81 -198 -161 0
81 -198 -175 0
81 -198 -189 0
81 -198 -217 0
81 -212 -105 0
81 -212 -119 0
81 -212 -133 0
81 -212 -147 0
81 -212 -161 0
81 -212 -175 0
81 -212 -189 0
81 -212 -203 0
82 -101 -116 0
82 -101 -130 0
82 -101 -144 0
82 -101 -158 0
82 -101 -172 0
82 -101 -186 0
82 -101 -200 0
82 -101 -214 0
82 -115 -102 0
82 -115 -130 0
82 -115 -144 0
82 -115 -158 0
82 -115 -172 0
82 -115 -186 0
82 -115 -200 0
82 -115 -214 0
82 -129 -102 0
82 -129 -116 0
82 -129 -144 0
82 -129 -158 0
82 -129 -172 0
82 -129 -186 0
82 -129 -200 0
82 -129 -214 0
82 -143 -102 0
82 -143 -116 0
82 -143 -130 0
82 -143 -158 0
82 -143 -172 0
82 -143 -186 0
82 -143 -200 0
82 -143 -214 0
82 -157 -102 0
82 -157 -116 0
82 -157 -130 0
82 -157 -144 0
82 -157 -172 0
82 -157 -186 0
82 -157 -200 0
82 -157 -214 0
82 -171 -102 0
82 -171 -116 0
82 -171 -130 0
82 -171 -144 0
82 -171 -158 0
82 -171 -186 0
82 -171 -200 0
82 -171 -214 0
82 -185 -102 0
82 -185 -116 0
82 -185 -130 0
82 -185 -144 0
82 -185 -158 0
82 -185 -172 0
82 -185 -200 0
82 -185 -214 0
82 -199 -102 0
82 -199 -116 0
82 -199 -130 0
82 -199 -144 0
82 -199 -158 0
82 -199 -172 0
82 -199 -186 0
82 -199 -214 0
82 -213 -102 0
82 -213 -116 0
82 -213 -130 0
82 -213 -144 0
82 -213 -158 0
82 -213 -172 0
82 -213 -186 0
82 -213 -200 0
83 -101 -117 0
83 -101 -131 0
83 -101 -145 0
83 -101 -159 0
83 -101 -173 0
83 -101 -187 0
83 -101 -201 0
83 -101 -215 0
83 -115 -103 0
83 -115 -131 0
83 -115 -145 0
83 -115 -159 0
83 -115 -173 0
83 -115 -187 0
83 -115 -201 0
83 -115 -215 0
83 -129 -103 0
83 -129 -117 0
83 -129 -145 0
83 -129 -159 0
83 -129 -173 0
83 -129 -187 0
83 -129 -201 0
83 -129 -215 0
83 -143 -103 0
83 -143 -117 0
83 -143 -131 0
83 -143 -159 0
83 -143 -173 0
83 -143 -187 0
83 -143 -201 0
83 -143 -215 0
83 -157 -103 0
83 -157 -117 0
83 -157 -131 0
83 -157 -145 0
83 -157 -173 0
83 -157 -187 0
83 -157 -201 0
83 -157 -215 0
83 -171 -103 0
83 -171 -117 0
83 -171 -131 0
83 -171 -145 0
83 -171 -159 0
83 -171 -187 0
83 -171 -201 0
83 -171 -215 0
83 -185 -103 0
83 -185 -117 0
83 -185 -131 0
83 -185 -145 0
83 -185 -159 0
83 -185 -173 0
83 -185 -201 0
83 -185 -215 0
83 -199 -103 0
83 -199 -117 0
83 -199 -131 0
83 -199 -145 0
83 -199 -159 0
83 -199 -173 0
83 -199 -187 0
83 -199 -215 0
83 -213 -103 0
83 -213 -117 0
83 -213 -131 0
83 -213 -145 0
83 -213 -159 0
83 -213 -173 0
83 -213 -187 0
83 -213 -201 0
84 -101 -118 0
84 -101 -132 0
84 -101 -146 0
84 -101 -160 0
84 -101 -174 0
84 -101 -188 0
84 -101 -202 0
84 -101 -216 0
84 -115 -104 0
84 -115 -132 0
84 -115 -146 0
84 -115 -160 0
84 -115 -174 0
84 -115 -188 0
84 -115 -202 0
84 -115 -216 0
84 -129 -104 0
84 -129 -118 0
84 -129 -146 0
84 -129 -160 0
84 -129 -174 0
84 -129 -188 0
84 -129 -202 0
84 -129 -216 0
84 -143 -104 0
84 -143 -118 0
84 -143 -132 0
84 -143 -160 0
84 -143 -174 0
84 -143 -188 0
84 -143 -202 0
84 -143 -216 0
84 -157 -104 0
84 -157 -118 0
84 -157 -132 0
84 -157 -146 0
84 -157 -174 0
84 -157 -188 0
84 -157 -202 0
84 -157 -216 0
84 -171 -104 0
84 -171 -118 0
84 -171 -132 0
84 -171 -146 0
84 -171 -160 0
84 -171 -188 0
84 -171 -202 0
84 -171 -216 0
84 -185 -104 0
84 -185 -118 0
84 -185 -132 0
84 -185 -146 0
84 -185 -160 0
84 -185 -174 0
84 -185 -202 0
84 -185 -216 0
84 -199 -104 0
84 -199 -118 0
84 -199 -132 0
84 -199 -146 0
84 -199 -160 0
84 -199 -174 0
84 -199 -188 0
84 -199 -216 0
84 -213 -104 0
84 -213 -118 0
84 -213 -132 0
84 -213 -146 0
84 -213 -160 0
84 -213 -174 0
84 -213 -188 0
84 -213 -202 0
85 -101 -119 0
85 -101 -133 0
85 -101 -147 0
85 -101 -161 0
85 -101 -175 0
85 -101 -189 0
85 -101 -203 0
85 -101 -217 0
85 -115 -105 0
85 -115 -133 0
85 -115 -147 0
85 -115 -161 0
85 -115 -175 0
85 -115 -189 0
85 -115 -203 0
85 -115 -217 0
85 -129 -105 0
85 -129 -119 0
85 -129 -147 0
85 -129 -161 0
85 -129 -175 0
85 -129 -189 0
85 -129 -203 0
85 -129 -217 0
85 -143 -105 0
85 -143 -119 0
85 -143 -133 0
85 -143 -161 0
85 -143 -175 0
85 -143 -189 0
85 -143 -203 0
85 -143 -217 0
85 -157 -105 0
85 -157 -119 0
85 -157 -133 0
85 -157 -147 0
85 -157 -175 0
85 -157 -189 0
85 -157 -203 0
85 -157 -217 0
85 -171 -105 0
85 -171 -119 0
85 -171 -133 0
85 -171 -147 0
85 -171 -161 0
85 -171 -189 0
85 -171 -203 0
85 -171 -217 0
85 -185 -105 0
85 -185 -119 0
85 -185 -133 0
85 -185 -147 0
85 -185 -161 0
85 -185 -175 0
85 -185 -203 0
85 -185 -217 0
85 -199 -105 0
85 -199 -119 0
85 -199 -133 0
85 -199 -147 0
85 -199 -161 0
85 -199 -175 0
85 -199 -189 0
85 -199 -217 0
85 -213 -105 0
85 -213 -119 0
85 -213 -133 0
85 -213 -147 0
85 -213 -161 0
85 -213 -175 0
85 -213 -189 0
85 -213 -203 0
86 -102 -117 0
86 -102 -131 0
86 -102 -145 0
86 -102 -159 0
86 -102 -173 0
86 -102 -187 0
86 -102 -201 0
86 -102 -215 0
86 -116 -103 0
86 -116 -131 0
86 -116 -145 0
86 -116 -159 0
86 -116 -173 0
86 -116 -187 0
86 -116 -201 0
86 -116 -215 0
86 -130 -103 0
86 -130 -117 0
86 -130 -145 0
86 -130 -159 0
86 -130 -173 0
86 -130 -187 0
86 -130 -201 0
86 -130 -215 0
86 -144 -103 0
86 -144 -117 0
86 -144 -131 0
86 -144 -159 0
86 -144 -173 0
86 -144 -187 0
86 -144 -201 0
86 -144 -215 0
86 -158 -103 0
86 -158 -117 0
86 -158 -131 0
86 -158 -145 0
86 -158 -173 0
86 -158 -187 0
86 -158 -201 0
86 -158 -215 0
86 -172 -103 0
86 -172 -117 0
86 -172 -131 0
86 -172 -145 0
86 -172 -159 0
86 -172 -187 0
86 -172 -201 0
86 -172 -215 0
86 -186 -103 0
86 -186 -117 0
86 -186 -131 0
86 -186 -145 0
86 -186 -159 0
86 -186 -173 0
86 -186 -201 0
86 -186 -215 0
86 -200 -103 0
86 -200 -117 0
86 -200 -131 0
86 -200 -145 0
86 -200 -159 0
86 -200 -173 0
86 -200 -187 0
86 -200 -215 0
86 -214 -103 0
86 -214 -117 0
86 -214 -131 0
86 -214 -145 0
86 -214 -159 0
86 -214 -173 0
86 -214 -187 0
86 -214 -201 0
87 -102 -118 0
87 -102 -132 0
87 -102 -146 0
87 -102 -160 0
87 -102 -174 0
87 -102 -188 0
87 -102 -202 0
87 -102 -216 0
87 -116 -104 0
87 -116 -132 0
87 -116 -146 0
87 -116 -160 0
87 -116 -174 0
87 -116 -188 0
87 -116 -202 0
87 -116 -216 0
87 -130 -104 0
87 -130 -118 0
87 -130 -146 0
87 -130 -160 0
87 -130 -174 0
87 -130 -188 0
87 -130 -202 0
87 -130 -216 0
87 -144 -104 0
87 -144 -118 0
87 -144 -132 0
87 -144 -160 0
87 -144 -174 0
87 -144 -188 0
87 -144 -202 0
87 -144 -216 0
87 -158 -104 0
87 -158 -118 0
87 -158 -132 0
87 -158 -146 0
87 -158 -174 0
87 -158 -188 0
87 -158 -202 0
87 -158 -216 0
87 -172 -104 0
87 -172 -118 0
87 -172 -132 0
87 -172 -146 0
87 -172 -160 0
87 -172 -188 0
87 -172 -202 0
87 -172 -216 0
87 -186 -104 0
87 -186 -118 0
87 -186 -132 0
87 -186 -146 0
87 -186 -160 0
87 -186 -174 0
87 -186 -202 0
87 -186 -216 0
87 -200 -104 0
87 -200 -118 0
87 -200 -132 0
87 -200 -146 0
87 -200 -160 0
87 -200 -174 0
87 -200 -188 0
87 -200 -216 0
87 -214 -104 0
87 -214 -118 0
87 -214 -132 0
87 -214 -146 0
87 -214 -160 0
87 -214 -174 0
87 -214 -188 0
87 -214 -202 0
88 -102 -119 0
88 -102 -133 0
88 -102 -147 0
88 -102 -161 0
88 -102 -175 0
88 -102 -189 0
88 -102 -203 0
88 -102 -217 0
88 -116 -105 0
88 -116 -133 0
88 -116 -147 0
88 -116 -161 0
88 -116 -175 0
88 -116 -189 0
88 -116 -203 0
88 -116 -217 0
88 -130 -105 0
88 -130 -119 0
88 -130 -147 0
88 -130 -161 0
88 -130 -175 0
88 -130 -189 0
88 -130 -203 0
88 -130 -217 0
88 -144 -105 0
88 -144 -119 0
88 -144 -133 0
88 -144 -161 0
88 -144 -175 0
88 -144 -189 0
88 -144 -203 0
88 -144 -217 0
88 -158 -105 0
88 -158 -119 0
88 -158 -133 0
88 -158 -147 0
88 -158 -175 0
88 -158 -189 0
88 -158 -203 0
88 -158 -217 0
88 -172 -105 0
88 -172 -119 0
88 -172 -133 0
88 -172 -147 0
88 -172 -161 0
88 -172 -189 0
88 -172 -203 0
88 -172 -217 0
88 -186 -105 0
88 -186 -119 0
88 -186 -133 0
88 -186 -147 0
88 -186 -161 0
88 -186 -175 0
88 -186 -203 0
88 -186 -217 0
88 -200 -105 0
88 -200 -119 0
88 -200 -133 0
88 -200 -147 0
88 -200 -161 0
88 -200 -175 0
88 -200 -189 0
88 -200 -217 0
88 -214 -105 0
88 -214 -119 0
88 -214 -133 0
88 -214 -147 0
88 -214 -161 0
88 -214 -175 0
88 -214 -189 0
88 -214 -203 0
89 -103 -118 0
89 -103 -132 0
89 -103 -146 0
89 -103 -160 0
89 -103 -174 0
89 -103 -188 0
89 -103 -202 0
89 -103 -216 0
89 -117 -104 0
89 -117 -132 0
89 -117 -146 0
89 -117 -160 0
89 -117 -174 0
89 -117 -188 0
89 -117 -202 0
89 -117 -216 0
89 -131 -104 0
89 -131 -118 0
89 -131 -146 0
89 -131 -160 0
89 -131 -174 0
89 -131 -188 0
89 -131 -202 0
89 -131 -216 0
89 -145 -104 0
89 -145 -118 0
89 -145 -132 0
89 -145 -160 0
89 -145 -174 0
89 -145 -188 0
89 -145 -202 0
89 -145 -216 0
89 -159 -104 0
89 -159 -118 0
89 -159 -132 0
89 -159 -146 0
89 -159 -174 0
89 -159 -188 0
89 -159 -202 0
89 -159 -216 0
89 -173 -104 0
89 -173 -118 0
89 -173 -132 0
89 -173 -146 0
89 -173 -160 0
89 -173 -188 0
89 -173 -202 0
89 -173 -216 0
89 -187 -104 0
89 -187 -118 0
89 -187 -132 0
89 -187 -146 0
89 -187 -160 0
89 -187 -174 0
89 -187 -202 0
89 -187 -216 0
89 -201 -104 0
89 -201 -118 0
89 -201 -132 0
89 -201 -146 0
89 -201 -160 0
89 -201 -174 0
89 -201 -188 0
89 -201 -216 0
89 -215 -104 0
89 -215 -118 0
89 -215 -132 0
89 -215 -146 0
89 -215 -160 0
89 -215 -174 0
89 -215 -188 0
89 -215 -202 0
90 -103 -119 0
90 -103 -133 0
90 -103 -147 0
90 -103 -161 0
90 -103 -175 0
90 -103 -189 0
90 -103 -203 0
90 -103 -217 0
90 -117 -105 0
90 -117 -133 0
90 -117 -147 0
90 -117 -161 0
90 -117 -175 0
90 -117 -189 0
90 -117 -203 0
90 -117 -217 0
90 -131 -105 0
90 -131 -119 0
90 -131 -147 0
90 -131 -161 0
90 -131 -175 0
90 -131 -189 0
90 -131 -203 0
90 -131 -217 0
90 -145 -105 0
90 -145 -119 0
90 -145 -133 0
90 -145 -161 0
90 -145 -175 0
90 -145 -189 0
90 -145 -203 0
90 -145 -217 0
90 -159 -105 0
90 -159 -119 0
90 -159 -133 0
90 -159 -147 0
90 -159 -175 0
90 -159 -189 0
90 -159 -203 0
90 -159 -217 0
90 -173 -105 0
90 -173 -119 0
90 -173 -133 0
90 -173 -147 0
90 -173 -161 0
90 -173 -189 0
90 -173 -203 0
90 -173 -217 0
90 -187 -105 0
90 -187 -119 0
90 -187 -133 0
90 -187 -147 0
90 -187 -161 0
90 -187 -175 0
90 -187 -203 0
90 -187 -217 0
90 -201 -105 0
90 -201 -119 0
90 -201 -133 0
90 -201 -147 0
90 -201 -161 0
90 -201 -175 0
90 -201 -189 0
90 -201 -217 0
90 -215 -105 0
90 -215 -119 0
90 -215 -133 0
90 -215 -147 0
90 -215 -161 0
90 -215 -175 0
90 -215 -189 0
90 -215 -203 0
91 -104 -119 0
91 -104 -133 0
91 -104 -147 0
91 -104 -161 0
91 -104 -175 0
91 -104 -189 0
91 -104 -203 0
91 -104 -217 0
91 -118 -105 0
91 -118 -133 0
91 -118 -147 0
91 -118 -161 0
91 -118 -175 0
91 -118 -189 0
91 -118 -203 0
91 -118 -217 0
91 -132 -105 0
91 -132 -119 0
91 -132 -147 0
91 -132 -161 0
91 -132 -175 0
91 -132 -189 0
91 -132 -203 0
91 -132 -217 0
91 -146 -105 0
91 -146 -119 0
91 -146 -133 0
91 -146 -161 0
91 -146 -175 0
91 -146 -189 0
91 -146 -203 0
91 -146 -217 0
91 -160 -105 0
91 -160 -119 0
91 -160 -133 0
91 -160 -147 0
91 -160 -175 0
91 -160 -189 0
91 -160 -203 0
91 -160 -217 0
91 -174 -105 0
91 -174 -119 0
91 -174 -133 0
91 -174 -147 0
91 -174 -161 0
91 -174 -189 0
91 -174 -203 0
91 -174 -217 0
91 -188 -105 0
91 -188 -119 0
91 -188 -133 0
91 -188 -147 0
91 -188 -161 0
91 -188 -175 0
91 -188 -203 0
91 -188 -217 0
91 -202 -105 0
91 -202 -119 0
91 -202 -133 0
91 -202 -147 0
91 -202 -161 0
91 -202 -175 0
91 -202 -189 0
91 -202 -217 0
91 -216 -105 0
91 -216 -119 0
91 -216 -133 0
91 -216 -147 0
91 -216 -161 0
91 -216 -175 0
91 -216 -189 0
91 -216 -203 0
-218 -219 0
-218 -220 0
-218 -221 0
-218 -222 0
-218 -223 0
-218 -224 0
-218 -225 0
-219 -220 0
-219 -221 0
-219 -222 0
-219 -223 0
-219 -224 0
-219 -225 0
-220 -221 0
-220 -222 0
-220 -223 0
-220 -224 0
-220 -225 0
-221 -222 0
-221 -223 0
-221 -224 0
-221 -225 0
-222 -223 0
-222 -224 0
-222 -225 0
-223 -224 0
-223 -225 0
-224 -225 0
218 219 220 221 222 223 224 225 0
-226 -227 0
-226 -228 0
-226 -229 0
-226 -230 0
-226 -231 0
-226 -232 0
-226 -233 0
-227 -228 0
-227 -229 0
-227 -230 0
-227 -231 0
-227 -232 0
-227 -233 0
-228 -229 0
-228 -230 0
-228 -231 0
-228 -232 0
-228 -233 0
-229 -230 0
-229 -231 0
-229 -232 0
-229 -233 0
-230 -231 0
-230 -232 0
-230 -233 0
-231 -232 0
-231 -233 0
-232 -233 0
226 227 228 229 230 231 232 233 0
-234 -235 0
-234 -236 0
-234 -237 0
-234 -238 0
-234 -239 0
-234 -240 0
-234 -241 0
-235 -236 0
-235 -237 0
-235 -238 0
-235 -239 0
-235 -240 0
-235 -241 0
-236 -237 0
-236 -238 0
-236 -239 0
-236 -240 0
-236 -241 0
-237 -238 0
-237 -239 0
-237 -240 0
-237 -241 0
-238 -239 0
-238 -240 0
-238 -241 0
-239 -240 0
-239 -241 0
-240 -241 0
234 235 236 237 238 239 240 241 0
-242 -243 0
-242 -244 0
-242 -245 0
-242 -246 0
-242 -247 0
-242 -248 0
-242 -249 0
-243 -244 0
-243 -245 0
-243 -246 0
-243 -247 0
-243 -248 0
-243 -249 0
-244 -245 0
-244 -246 0
-244 -247 0
-244 -248 0
-244 -249 0
-245 -246 0
-245 -247 0
-245 -248 0
-245 -249 0
-246 -247 0
-246 -248 0
-246 -249 0
-247 -248 0
-247 -249 0
-248 -249 0
242 243 244 245 246 247 248 249 0
-250 -251 0
-250 -252 0
-250 -253 0
-250 -254 0
-250 -255 0
-250 -256 0
-250 -257 0
-251 -252 0
-251 -253 0
-251 -254 0
-251 -255 0
-251 -256 0
-251 -257 0
-252 -253 0
-252 -254 0
-252 -255 0
-252 -256 0
-252 -257 0
-253 -254 0
-253 -255 0
-253 -256 0
-253 -257 0
-254 -255 0
-254 -256 0
-254 -257 0
-255 -256 0
-255 -257 0
-256 -257 0
250 251 252 253 254 255 256 257 0
-258 -259 0
-258 -260 0
-258 -261 0
-258 -262 0
-258 -263 0
-258 -264 0
-258 -265 0
-259 -260 0
-259 -261 0
-259 -262 0
-259 -263 0
-259 -264 0
-259 -265 0
-260 -261 0
-260 -262 0
-260 -263 0
-260 -264 0
-260 -265 0
-261 -262 0
-261 -263 0
-261 -264 0
-261 -265 0
-262 -263 0
-262 -264 0
-262 -265 0
-263 -264 0
-263 -265 0
-264 -265 0
258 259 260 261 262 263 264 265 0
-266 -267 0
-266 -268 0
-266 -269 0
-266 -270 0
-266 -271 0
-266 -272 0
-266 -273 0
-267 -268 0
-267 -269 0
-267 -270 0
-267 -271 0
-267 -272 0
-267 -273 0
-268 -269 0
-268 -270 0
-268 -271 0
-268 -272 0
-268 -273 0
-269 -270 0
-269 -271 0
-269 -272 0
-269 -273 0
-270 -271 0
-270 -272 0
-270 -273 0
-271 -272 0
-271 -273 0
-272 -273 0
266 267 268 269 270 271 272 273 0
-274 -275 0
-274 -276 0
-274 -277 0
-274 -278 0
-274 -279 0
-274 -280 0
-274 -281 0
-275 -276 0
-275 -277 0
-275 -278 0
-275 -279 0
-275 -280 0
-275 -281 0
-276 -277 0
-276 -278 0
-276 -279 0
-276 -280 0
-276 -281 0
-277 -278 0
-277 -279 0
-277 -280 0
-277 -281 0
-278 -279 0
-278 -280 0
-278 -281 0
-279 -280 0
-279 -281 0
-280 -281 0
274 275 276 277 278 279 280 281 0
-282 -283 0
-282 -284 0
-282 -285 0
-282 -286 0
-282 -287 0
-282 -288 0
-282 -289 0
-283 -284 0
-283 -285 0
-283 -286 0
-283 -287 0
-283 -288 0
-283 -289 0
-284 -285 0
-284 -286 0
-284 -287 0
-284 -288 0
-284 -289 0
-285 -286 0
-285 -287 0
-285 -288 0
-285 -289 0
-286 -287 0
-286 -288 0
-286 -289 0
-287 -288 0
-287 -289 0
-288 -289 0
282 283 284 285 286 287 288 289 0
-290 -291 0
-290 -292 0
-290 -293 0
-290 -294 0
-290 -295 0
-290 -296 0
-290 -297 0
-291 -292 0
-291 -293 0
-291 -294 0
-291 -295 0
-291 -296 0
-291 -297 0
-292 -293 0
-292 -294 0
-292 -295 0
-292 -296 0
-292 -297 0
-293 -294 0
-293 -295 0
-293 -296 0
-293 -297 0
-294 -295 0
-294 -296 0
-294 -297 0
-295 -296 0
-295 -297 0
-296 -297 0
290 291 292 293 294 295 296 297 0
-298 -299 0
-298 -300 0
-298 -301 0
-298 -302 0
-298 -303 0
-298 -304 0
-298 -305 0
-299 -300 0
-299 -301 0
-299 -302 0
-299 -303 0
-299 -304 0
-299 -305 0
-300 -301 0
-300 -302 0
-300 -303 0
-300 -304 0
-300 -305 0
-301 -302 0
-301 -303 0
-301 -304 0
-301 -305 0
-302 -303 0
-302 -304 0
-302 -305 0
-303 -304 0
-303 -305 0
-304 -305 0
298 299 300 301 302 303 304 305 0
-306 -307 0
-306 -308 0
-306 -309 0
-306 -310 0
-306 -311 0
-306 -312 0
-306 -313 0
-307 -308 0
-307 -309 0
-307 -310 0
-307 -311 0
-307 -312 0
-307 -313 0
-308 -309 0
-308 -310 0
-308 -311 0
-308 -312 0
-308 -313 0
-309 -310 0
-309 -311 0
-309 -312 0
-309 -313 0
-310 -311 0
-310 -312 0
-310 -313 0
-311 -312 0
-311 -313 0
-312 -313 0
306 307 308 309 310 311 312 313 0
-314 -315 0
-314 -316 0
-314 -317 0
-314 -318 0
-314 -319 0
-314 -320 0
-314 -321 0
-315 -316 0
-315 -317 0
-315 -318 0
-315 -319 0
-315 -320 0
-315 -321 0
-316 -317 0
-316 -318 0
-316 -319 0
-316 -320 0
-316 -321 0
-317 -318 0
-317 -319 0
-317 -320 0
-317 -321 0
-318 -319 0
-318 -320 0
-318 -321 0
-319 -320 0
-319 -321 0
-320 -321 0
314 315 316 317 318 319 320 321 0
-322 -323 0
-322 -324 0
-322 -325 0
-322 -326 0
-322 -327 0
-322 -328 0
-322 -329 0
-323 -324 0
-323 -325 0
-323 -326 0
-323 -327 0
-323 -328 0
-323 -329 0
-324 -325 0
-324 -326 0
-324 -327 0
-324 -328 0
-324 -329 0
-325 -326 0
-325 -327 0
-325 -328 0
-325 -329 0
-326 -327 0
-326 -328 0
-326 -329 0
-327 -328 0
-327 -329 0
-328 -329 0
322 323 324 325 326 327 328 329 0
-1 -218 -226 0
-1 -219 -227 0
-1 -220 -228 0
-1 -221 -229 0
-1 -222 -230 0
-1 -223 -231 0
-1 -224 -232 0
-1 -225 -233 0
-2 -218 -234 0
-2 -219 -235 0
-2 -220 -236 0
-2 -221 -237 0
-2 -222 -238 0
-2 -223 -239 0
-2 -224 -240 0
-2 -225 -241 0
-3 -218 -242 0
-3 -219 -243 0
-3 -220 -244 0
-3 -221 -245 0
-3 -222 -246 0
-3 -223 -247 0
-3 -224 -248 0
-3 -225 -249 0
-4 -218 -250 0
-4 -219 -251 0
-4 -220 -252 0
-4 -221 -253 0
-4 -222 -254 0
-4 -223 -255 0
-4 -224 -256 0
-4 -225 -257 0
-5 -218 -258 0
-5 -219 -259 0
-5 -220 -260 0
-5 -221 -261 0
-5 -222 -262 0
-5 -223 -263 0
-5 -224 -264 0
-5 -225 -265 0
-6 -218 -266 0
-6 -219 -267 0
-6 -220 -268 0
-6 -221 -269 0
-6 -222 -270 0
-6 -223 -271 0
-6 -224 -272 0
-6 -225 -273 0
-7 -218 -274 0
-7 -219 -275 0
-7 -220 -276 0
-7 -221 -277 0
-7 -222 -278 0
-7 -223 -279 0
-7 -224 -280 0
-7 -225 -281 0
-8 -218 -282 0
-8 -219 -283 0
-8 -220 -284 0
-8 -221 -285 0
-8 -222 -286 0
-8 -223 -287 0
-8 -224 -288 0
-8 -225 -289 0
-9 -218 -290 0
-9 -219 -291 0
-9 -220 -292 0
-9 -221 -293 0
-9 -222 -294 0
-9 -223 -295 0
-9 -224 -296 0
-9 -225 -297 0
-10 -218 -298 0
-10 -219 -299 0
-10 -220 -300 0
-10 -221 -301 0
-10 -222 -302 0
-10 -223 -303 0
-10 -224 -304 0
-10 -225 -305 0
-11 -218 -306 0
-11 -219 -307 0
-11 -220 -308 0
-11 -221 -309 0
-11 -222 -310 0
-11 -223 -311 0
-11 -224 -312 0
-11 -225 -313 0
-12 -218 -314 0
-12 -219 -315 0
-12 -220 -316 0
-12 -221 -317 0
-12 -222 -318 0
-12 -223 -319 0
-12 -224 -320 0
-12 -225 -321 0
-13 -218 -322 0
-13 -219 -323 0
-13 -220 -324 0
-13 -221 -325 0
-13 -222 -326 0
-13 -223 -327 0
-13 -224 -328 0
-13 -225 -329 0
-14 -226 -234 0
-14 -227 -235 0
-14 -228 -236 0
-14 -229 -237 0
-14 -230 -238 0
-14 -231 -239 0
-14 -232 -240 0
-14 -233 -241 0
-15 -226 -242 0
-15 -227 -243 0
-15 -228 -244 0
-15 -229 -245 0
-15 -230 -246 0
-15 -231 -247 0
-15 -232 -248 0
-15 -233 -249 0
-16 -226 -250 0
-16 -227 -251 0
-16 -228 -252 0
-16 -229 -253 0
-16 -230 -254 0
-16 -231 -255 0
-16 -232 -256 0
-16 -233 -257 0
-17 -226 -258 0
-17 -227 -259 0
-17 -228 -260 0
-17 -229 -261 0
-17 -230 -262 0
-17 -231 -263 0
-17 -232 -264 0
-17 -233 -265 0
-18 -226 -266 0
-18 -227 -267 0
-18 -228 -268 0
-18 -229 -269 0
-18 -230 -270 0
-18 -231 -271 0
-18 -232 -272 0
-18 -233 -273 0
-19 -226 -274 0
-19 -227 -275 0
-19 -228 -276 0
-19 -229 -277 0
-19 -230 -278 0
-19 -231 -279 0
-19 -232 -280 0
-19 -233 -281 0
-20 -226 -282 0
-20 -227 -283 0
-20 -228 -284 0
-20 -229 -285 0
-20 -230 -286 0
-20 -231 -287 0
-20 -232 -288 0
-20 -233 -289 0
-21 -226 -290 0
-21 -227 -291 0
-21 -228 -292 0
-21 -229 -293 0
-21 -230 -294 0
-21 -231 -295 0
-21 -232 -296 0
-21 -233 -297 0
-22 -226 -298 0
-22 -227 -299 0
-22 -228 -300 0
-22 -229 -301 0
-22 -230 -302 0
-22 -231 -303 0
-22 -232 -304 0
-22 -233 -305 0
-23 -226 -306 0
-23 -227 -307 0
-23 -228 -308 0
-23 -229 -309 0
-23 -230 -310 0
-23 -231 -311 0
-23 -232 -312 0
-23 -233 -313 0
-24 -226 -314 0
-24 -227 -315 0
-24 -228 -316 0
-24 -229 -317 0
-24 -230 -318 0
-24 -231 -319 0
-24 -232 -320 0
-24 -233 -321 0
-25 -226 -322 0
-25 -227 -323 0
-25 -228 -324 0
-25 -229 -325 0
-25 -230 -326 0
-25 -231 -327 0
-25 -232 -328 0
-25 -233 -329 0
-26 -234 -242 0
-26 -235 -243 0
-26 -236 -244 0
-26 -237 -245 0
-26 -238 -246 0
-26 -239 -247 0
-26 -240 -248 0
-26 -241 -249 0
-27 -234 -250 0
-27 -235 -251 0
-27 -236 -252 0
-27 -237 -253 0
-27 -238 -254 0
-27 -239 -255 0
-27 -240 -256 0
-27 -241 -257 0
-28 -234 -258 0
-28 -235 -259 0
-28 -236 -260 0
-28 -237 -261 0
-28 -238 -262 0
-28 -239 -263 0
-28 -240 -264 0
-28 -241 -265 0
-29 -234 -266 0
-29 -235 -267 0
-29 -236 -268 0
-29 -237 -269 0
-29 -238 -270 0
-29 -239 -271 0
-29 -240 -272 0
-29 -241 -273 0
-30 -234 -274 0
-30 -235 -275 0
-30 -236 -276 0
-30 -237 -277 0
-30 -238 -278 0
-30 -239 -279 0
-30 -240 -280 0
-30 -241 -281 0
-31 -234 -282 0
-31 -235 -283 0
-31 -236 -284 0
-31 -237 -285 0
-31 -238 -286 0
-31 -239 -287 0
-31 -240 -288 0
-31 -241 -289 0
-32 -234 -290 0
-32 -235 -291 0
-32 -236 -292 0
-32 -237 -293 0
-32 -238 -294 0
-32 -239 -295 0
-32 -240 -296 0
-32 -241 -297 0
-33 -234 -298 0
-33 -235 -299 0
-33 -236 -300 0
-33 -237 -301 0
-33 -238 -302 0
-33 -239 -303 0
-33 -240 -304 0
-33 -241 -305 0
-34 -234 -306 0
-34 -235 -307 0
-34 -236 -308 0
-34 -237 -309 0
-34 -238 -310 0
-34 -239 -311 0
-34 -240 -312 0
-34 -241 -313 0
-35 -234 -314 0
-35 -235 -315 0
-35 -236 -316 0
-35 -237 -317 0
-35 -238 -318 0
-35 -239 -319 0
-35 -240 -320 0
-35 -241 -321 0
-36 -234 -322 0
-36 -235 -323 0
-36 -236 -324 0
-36 -237 -325 0
-36 -238 -326 0
-36 -239 -327 0
-36 -240 -328 0
-36 -241 -329 0
-37 -242 -250 0
-37 -243 -251 0
-37 -244 -252 0
-37 -245 -253 0
-37 -246 -254 0
-37 -247 -255 0
-37 -248 -256 0
-37 -249 -257 0
-38 -242 -258 0
-38 -243 -259 0
-38 -244 -260 0
-38 -245 -261 0
-38 -246 -262 0
-38 -247 -263 0
-38 -248 -264 0
-38 -249 -265 0
-39 -242 -266 0
-39 -243 -267 0
-39 -244 -268 0
-39 -245 -269 0
-39 -246 -270 0
-39 -247 -271 0
-39 -248 -272 0
-39 -249 -273 0
-40 -242 -274 0
-40 -243 -275 0
-40 -244 -276 0
-40 -245 -277 0
-40 -246 -278 0
-40 -247 -279 0
-40 -248 -280 0
-40 -249 -281 0
-41 -242 -282 0
-41 -243 -283 0
-41 -244 -284 0
-41 -245 -285 0
-41 -246 -286 0
-41 -247 -287 0
-41 -248 -288 0
-41 -249 -289 0
-42 -242 -290 0
-42 -243 -291 0
-42 -244 -292 0
-42 -245 -293 0
-42 -246 -294 0
-42 -247 -295 0
-42 -248 -296 0
-42 -249 -297 0
-43 -242 -298 0
-43 -243 -299 0
-43 -244 -300 0
-43 -245 -301 0
-43 -246 -302 0
-43 -247 -303 0
-43 -248 -304 0
-43 -249 -305 0
-44 -242 -306 0
-44 -243 -307 0
-44 -244 -308 0
-44 -245 -309 0
-44 -246 -310 0
-44 -247 -311 0
-44 -248 -312 0
-44 -249 -313 0
-45 -242 -314 0
-45 -243 -315 0
-45 -244 -316 0
-45 -245 -317 0
-45 -246 -318 0
-45 -247 -319 0
-45 -248 -320 0
-45 -249 -321 0
-46 -242 -322 0
-46 -243 -323 0
-46 -244 -324 0
-46 -245 -325 0
-46 -246 -326 0
-46 -247 -327 0
-46 -248 -328 0
-46 -249 -329 0
-47 -250 -258 0
-47 -251 -259 0
-47 -252 -260 0
-47 -253 -261 0
-47 -254 -262 0
-47 -255 -263 0
-47 -256 -264 0
-47 -257 -265 0
-48 -250 -266 0
-48 -251 -267 0
-48 -252 -268 0
-48 -253 -269 0
-48 -254 -270 0
-48 -255 -271 0
-48 -256 -272 0
-48 -257 -273 0
-49 -250 -274 0
-49 -251 -275 0
-49 -252 -276 0
-49 -253 -277 0
-49 -254 -278 0
-49 -255 -279 0
-49 -256 -280 0
-49 -257 -281 0
-50 -250 -282 0
-50 -251 -283 0
-50 -252 -284 0
-50 -253 -285 0
-50 -254 -286 0
-50 -255 -287 0
-50 -256 -288 0
-50 -257 -289 0
-51 -250 -290 0
-51 -251 -291 0
-51 -252 -292 0
-51 -253 -293 0
-51 -254 -294 0
-51 -255 -295 0
-51 -256 -296 0
-51 -257 -297 0
-52 -250 -298 0
-52 -251 -299 0
-52 -252 -300 0
-52 -253 -301 0
-52 -254 -302 0
-52 -255 -303 0
-52 -256 -304 0
-52 -257 -305 0
-53 -250 -306 0
-53 -251 -307 0
-53 -252 -308 0
-53 -253 -309 0
-53 -254 -310 0
-53 -255 -311 0
-53 -256 -312 0
-53 -257 -313 0
-54 -250 -314 0
-54 -251 -315 0
-54 -252 -316 0
-54 -253 -317 0
-54 -254 -318 0
-54 -255 -319 0
-54 -256 -320 0
-54 -257 -321 0
-55 -250 -322 0
-55 -251 -323 0
-55 -252 -324 0
-55 -253 -325 0
-55 -254 -326 0
-55 -255 -327 0
-55 -256 -328 0
-55 -257 -329 0
-56 -258 -266 0
-56 -259 -267 0
-56 -260 -268 0
-56 -261 -269 0
-56 -262 -270 0
-56 -263 -271 0
-56 -264 -272 0
-56 -265 -273 0
-57 -258 -274 0
-57 -259 -275 0
-57 -260 -276 0
-57 -261 -277 0
-57 -262 -278 0
-57 -263 -279 0
-57 -264 -280 0
-57 -265 -281 0
-58 -258 -282 0
-58 -259 -283 0
-58 -260 -284 0
-58 -261 -285 0
-58 -262 -286 0
-58 -263 -287 0
-58 -264 -288 0
-58 -265 -289 0
-59 -258 -290 0
-59 -259 -291 0
-59 -260 -292 0
-59 -261 -293 0
-59 -262 -294 0
-59 -263 -295 0
-59 -264 -296 0
-59 -265 -297 0
-60 -258 -298 0
-60 -259 -299 0
-60 -260 -300 0
-60 -261 -301 0
-60 -262 -302 0
-60 -263 -303 0
-60 -264 -304 0
-60 -265 -305 0
-61 -258 -306 0
-61 -259 -307 0
-61 -260 -308 0
-61 -261 -309 0
-61 -262 -310 0
-61 -263 -311 0
-61 -264 -312 0
-61 -265 -313 0
-62 -258 -314 0
-62 -259 -315 0
-62 -260 -316 0
-62 -261 -317 0
-62 -262 -318 0
-62 -263 -319 0
-62 -264 -320 0
-62 -265 -321 0
-63 -258 -322 0
-63 -259 -323 0
-63 -260 -324 0
-63 -261 -325 0
-63 -262 -326 0
-63 -263 -327 0
-63 -264 -328 0
-63 -265 -329 0
-64 -266 -274 0
-64 -267 -275 0
-64 -268 -276 0
-64 -269 -277 0
-64 -270 -278 0
-64 -271 -279 0
-64 -272 -280 0
-64 -273 -281 0
-65 -266 -282 0
-65 -267 -283 0
-65 -268 -284 0
-65 -269 -285 0
-65 -270 -286 0
-65 -271 -287 0
-65 -272 -288 0
-65 -273 -289 0
-66 -266 -290 0
-66 -267 -291 0
-66 -268 -292 0
-66 -269 -293 0
-66 -270 -294 0
-66 -271 -295 0
-66 -272 -296 0
-66 -273 -297 0
-67 -266 -298 0
-67 -267 -299 0
-67 -268 -300 0
-67 -269 -301 0
-67 -270 -302 0
-67 -271 -303 0
-67 -272 -304 0
-67 -273 -305 0
-68 -266 -306 0
-68 -267 -307 0
-68 -268 -308 0
-68 -269 -309 0
-68 -270 -310 0
-68 -271 -311 0
-68 -272 -312 0
-68 -273 -313 0
-69 -266 -314 0
-69 -267 -315 0
-69 -268 -316 0
-69 -269 -317 0
-69 -270 -318 0
-69 -271 -319 0
-69 -272 -320 0
-69 -273 -321 0
-70 -266 -322 0
-70 -267 -323 0
-70 -268 -324 0
-70 -269 -325 0
-70 -270 -326 0
-70 -271 -327 0
-70 -272 -328 0
-70 -273 -329 0
-71 -274 -282 0
-71 -275 -283 0
-71 -276 -284 0
-71 -277 -285 0
-71 -278 -286 0
-71 -279 -287 0
-71 -280 -288 0
-71 -281 -289 0
-72 -274 -290 0
-72 -275 -291 0
-72 -276 -292 0
-72 -277 -293 0
-72 -278 -294 0
-72 -279 -295 0
-72 -280 -296 0
-72 -281 -297 0
-73 -274 -298 0
-73 -275 -299 0
-73 -276 -300 0
-73 -277 -301 0
-73 -278 -302 0
-73 -279 -303 0
-73 -280 -304 0
-73 -281 -305 0
-74 -274 -306 0
-74 -275 -307 0
-74 -276 -308 0
-74 -277 -309 0
-74 -278 -310 0
-74 -279 -311 0
-74 -280 -312 0
-74 -281 -313 0
-75 -274 -314 0
-75 -275 -315 0
-75 -276 -316 0
-75 -277 -317 0
-75 -278 -318 0
-75 -279 -319 0
-75 -280 -320 0
-75 -281 -321 0
-76 -274 -322 0
-76 -275 -323 0
-76 -276 -324 0
-76 -277 -325 0
-76 -278 -326 0
-76 -279 -327 0
-76 -280 -328 0
-76 -281 -329 0
-77 -282 -290 0
-77 -283 -291 0
-77 -284 -292 0
-77 -285 -293 0
-77 -286 -294 0
-77 -287 -295 0
-77 -288 -296 0
-77 -289 -297 0
-78 -282 -298 0
-78 -283 -299 0
-78 -284 -300 0
-78 -285 -301 0
-78 -286 -302 0
-78 -287 -303 0
-78 -288 -304 0
-78 -289 -305 0
-79 -282 -306 0
-79 -283 -307 0
-79 -284 -308 0
-79 -285 -309 0
-79 -286 -310 0
-79 -287 -311 0
-79 -288 -312 0
-79 -289 -313 0
-80 -282 -314 0
-80 -283 -315 0
-80 -284 -316 0
-80 -285 -317 0
-80 -286 -318 0
-80 -287 -319 0
-80 -288 -320 0
-80 -289 -321 0
-81 -282 -322 0
-81 -283 -323 0
-81 -284 -324 0
-81 -285 -325 0
-81 -286 -326 0
-81 -287 -327 0
-81 -288 -328 0
-81 -289 -329 0
-82 -290 -298 0
-82 -291 -299 0
-82 -292 -300 0
-82 -293 -301 0
-82 -294 -302 0
-82 -295 -303 0
-82 -296 -304 0
-82 -297 -305 0
-83 -290 -306 0
-83 -291 -307 0
-83 -292 -308 0
-83 -293 -309 0
-83 -294 -310 0
-83 -295 -311 0
-83 -296 -312 0
-83 -297 -313 0
-84 -290 -314 0
-84 -291 -315 0
-84 -292 -316 0
-84 -293 -317 0
-84 -294 -318 0
-84 -295 -319 0
-84 -296 -320 0
-84 -297 -321 0
-85 -290 -322 0
-85 -291 -323 0
-85 -292 -324 0
-85 -293 -325 0
-85 -294 -326 0
-85 -295 -327 0
-85 -296 -328 0
-85 -297 -329 0
-86 -298 -306 0
-86 -299 -307 0
-86 -300 -308 0
-86 -301 -309 0
-86 -302 -310 0
-86 -303 -311 0
-86 -304 -312 0
-86 -305 -313 0
-87 -298 -314 0
-87 -299 -315 0
-87 -300 -316 0
-87 -301 -317 0
-87 -302 -318 0
-87 -303 -319 0
-87 -304 -320 0
-87 -305 -321 0
-88 -298 -322 0
-88 -299 -323 0
-88 -300 -324 0
-88 -301 -325 0
-88 -302 -326 0
-88 -303 -327 0
-88 -304 -328 0
-88 -305 -329 0
-89 -306 -314 0
-89 -307 -315 0
-89 -308 -316 0
-89 -309 -317 0
-89 -310 -318 0
-89 -311 -319 0
-89 -312 -320 0
-89 -313 -321 0
-90 -306 -322 0
-90 -307 -323 0
-90 -308 -324 0
-90 -309 -325 0
-90 -310 -326 0
-90 -311 -327 0
-90 -312 -328 0
-90 -313 -329 0
-91 -314 -322 0
-91 -315 -323 0
-91 -316 -324 0
-91 -317 -325 0
-91 -318 -326 0
-91 -319 -327 0
-91 -320 -328 0
-91 -321 -329 0
330 0
-190 204 0
204 -330 331 0
-190 -330 331 0
-331 -191 205 0
205 -331 332 0
-191 -331 332 0
-332 -192 206 0
206 -332 333 0
-192 -332 333 0
-333 -193 207 0
207 -333 334 0
-193 -333 334 0
-334 -194 208 0
208 -334 335 0
-194 -334 335 0
-335 -195 209 0
209 -335 336 0
-195 -335 336 0
-336 -196 210 0
210 -336 337 0
-196 -336 337 0
-337 -197 211 0
211 -337 338 0
-197 -337 338 0
-338 -198 212 0
212 -338 339 0
-198 -338 339 0
-339 -199 213 0
213 -339 340 0
-199 -339 340 0
-340 -200 214 0
214 -340 341 0
-200 -340 341 0
-341 -201 215 0
215 -341 342 0
-201 -341 342 0
-342 -202 216 0
216 -342 343 0
-202 -342 343 0
-343 -203 217 0
344 0
-176 190 0
190 -344 345 0
-176 -344 345 0
-345 -177 191 0
191 -345 346 0
-177 -345 346 0
-346 -178 192 0
192 -346 347 0
-178 -346 347 0
-347 -179 193 0
193 -347 348 0
-179 -347 348 0
-348 -180 194 0
194 -348 349 0
-180 -348 349 0
-349 -181 195 0
195 -349 350 0
-181 -349 350 0
-350 -182 196 0
196 -350 351 0
-182 -350 351 0
-351 -183 197 0
197 -351 352 0
-183 -351 352 0
-352 -184 198 0
198 -352 353 0
-184 -352 353 0
-353 -185 199 0
199 -353 354 0
-185 -353 354 0
-354 -186 200 0
200 -354 355 0
-186 -354 355 0
-355 -187 201 0
201 -355 356 0
-187 -355 356 0
-356 -188 202 0
202 -356 357 0
-188 -356 357 0
-357 -189 203 0
358 0
-162 176 0
176 -358 359 0
-162 -358 359 0
-359 -163 177 0
177 -359 360 0
-163 -359 360 0
-360 -164 178 0
178 -360 361 0
-164 -360 361 0
-361 -165 179 0
179 -361 362 0
-165 -361 362 0
-362 -166 180 0
180 -362 363 0
-166 -362 363 0
-363 -167 181 0
181 -363 364 0
-167 -363 364 0
-364 -168 182 0
182 -364 365 0
-168 -364 365 0
-365 -169 183 0
183 -365 366 0
-169 -365 366 0
-366 -170 184 0
184 -366 367 0
-170 -366 367 0
-367 -171 185 0
185 -367 368 0
-171 -367 368 0
-368 -172 186 0
186 -368 369 0
-172 -368 369 0
-369 -173 187 0
187 -369 370 0
-173 -369 370 0
-370 -174 188 0
188 -370 371 0
-174 -370 371 0
-371 -175 189 0
372 0
-148 162 0
162 -372 373 0
-148 -372 373 0
-373 -149 163 0
163 -373 374 0
-149 -373 374 0
-374 -150 164 0
164 -374 375 0
-150 -374 375 0
-375 -151 165 0
165 -375 376 0
-151 -375 376 0
-376 -152 166 0
166 -376 377 0
-152 -376 377 0
-377 -153 167 0
167 -377 378 0
-153 -377 378 0
-378 -154 168 0
168 -378 379 0
-154 -378 379 0
-379 -155 169 0
169 -379 380 0
-155 -379 380 0
-380 -156 170 0
170 -380 381 0
-156 -380 381 0
-381 -157 171 0
171 -381 382 0
-157 -381 382 0
-382 -158 172 0
172 -382 383 0
-158 -382 383 0
-383 -159 173 0
173 -383 384 0
-159 -383 384 0
-384 -160 174 0
174 -384 385 0
-160 -384 385 0
-385 -161 175 0
386 0
-134 148 0
148 -386 387 0
-134 -386 387 0
-387 -135 149 0
149 -387 388 0
-135 -387 388 0
-388 -136 150 0
150 -388 389 0
-136 -388 389 0
-389 -137 151 0
151 -389 390 0
-137 -389 390 0
-390 -138 152 0
152 -390 391 0
-138 -390 391 0
-391 -139 153 0
153 -391 392 0
-139 -391 392 0
-392 -140 154 0
154 -392 393 0
-140 -392 393 0
-393 -141 155 0
155 -393 394 0
-141 -393 394 0
-394 -142 156 0
156 -394 395 0
-142 -394 395 0
-395 -143 157 0
157 -395 396 0
-143 -395 396 0
-396 -144 158 0
158 -396 397 0
-144 -396 397 0
-397 -145 159 0
159 -397 398 0
-145 -397 398 0
-398 -146 160 0
160 -398 399 0
-146 -398 399 0
-399 -147 161 0
400 0
-120 134 0
134 -400 401 0
-120 -400 401 0
-401 -121 135 0
135 -401 402 0
-121 -401 402 0
-402 -122 136 0
136 -402 403 0
-122 -402 403 0
-403 -123 137 0
137 -403 404 0
-123 -403 404 0
-404 -124 138 0
138 -404 405 0
-124 -404 405 0
-405 -125 139 0
139 -405 406 0
-125 -405 406 0
-406 -126 140 0
140 -406 407 0
-126 -406 407 0
-407 -127 141 0
141 -407 408 0
-127 -407 408 0
-408 -128 142 0
142 -408 409 0
-128 -408 409 0
-409 -129 143 0
143 -409 410 0
-129 -409 410 0
-410 -130 144 0
144 -410 411 0
-130 -410 411 0
-411 -131 145 0
145 -411 412 0
-131 -411 412 0
-412 -132 146 0
146 -412 413 0
-132 -412 413 0
-413 -133 147 0
414 0
-106 120 0
120 -414 415 0
-106 -414 415 0
-415 -107 121 0
121 -415 416 0
-107 -415 416 0
-416 -108 122 0
122 -416 417 0
-108 -416 417 0
-417 -109 123 0
123 -417 418 0
-109 -417 418 0
-418 -110 124 0
124 -418 419 0
-110 -418 419 0
-419 -111 125 0
125 -419 420 0
-111 -419 420 0
-420 -112 126 0
126 -420 421 0
-112 -420 421 0
-421 -113 127 0
127 -421 422 0
-113 -421 422 0
-422 -114 128 0
128 -422 423 0
-114 -422 423 0
-423 -115 129 0
129 -423 424 0
-115 -423 424 0
-424 -116 130 0
130 -424 425 0
-116 -424 425 0
-425 -117 131 0
131 -425 426 0
-117 -425 426 0
-426 -118 132 0
132 -426 427 0
-118 -426 427 0
-427 -119 133 0
428 0
-92 106 0
106 -428 429 0
-92 -428 429 0
-429 -93 107 0
107 -429 430 0
-93 -429 430 0
-430 -94 108 0
108 -430 431 0
-94 -430 431 0
-431 -95 109 0
109 -431 432 0
-95 -431 432 0
-432 -96 110 0
110 -432 433 0
-96 -432 433 0
-433 -97 111 0
111 -433 434 0
-97 -433 434 0
-434 -98 112 0
112 -434 435 0
-98 -434 435 0
-435 -99 113 0
113 -435 436 0
-99 -435 436 0
-436 -100 114 0
114 -436 437 0
-100 -436 437 0
-437 -101 115 0
115 -437 438 0
-101 -437 438 0
-438 -102 116 0
116 -438 439 0
-102 -438 439 0
-439 -103 117 0
117 -439 440 0
-103 -439 440 0
-440 -104 118 0
118 -440 441 0
-104 -440 441 0
-441 -105 119 0
442 0
-224 225 0
225 -442 443 0
-224 -442 443 0
-443 -232 233 0
233 -443 444 0
-232 -443 444 0
-444 -240 241 0
241 -444 445 0
-240 -444 445 0
-445 -248 249 0
249 -445 446 0
-248 -445 446 0
-446 -256 257 0
257 -446 447 0
-256 -446 447 0
-447 -264 265 0
265 -447 448 0
-264 -447 448 0
-448 -272 273 0
273 -448 449 0
-272 -448 449 0
-449 -280 281 0
281 -449 450 0
-280 -449 450 0
-450 -288 289 0
289 -450 451 0
-288 -450 451 0
-451 -296 297 0
297 -451 452 0
-296 -451 452 0
-452 -304 305 0
305 -452 453 0
-304 -452 453 0
-453 -312 313 0
313 -453 454 0
-312 -453 454 0
-454 -320 321 0
321 -454 455 0
-320 -454 455 0
-455 -328 329 0
456 0
-223 224 0
224 -456 457 0
-223 -456 457 0
-457 -231 232 0
232 -457 458 0
-231 -457 458 0
-458 -239 240 0
240 -458 459 0
-239 -458 459 0
-459 -247 248 0
248 -459 460 0
-247 -459 460 0
-460 -255 256 0
256 -460 461 0
-255 -460 461 0
-461 -263 264 0
264 -461 462 0
-263 -461 462 0
-462 -271 272 0
272 -462 463 0
-271 -462 463 0
-463 -279 280 0
280 -463 464 0
-279 -463 464 0
-464 -287 288 0
288 -464 465 0
-287 -464 465 0
-465 -295 296 0
296 -465 466 0
-295 -465 466 0
-466 -303 304 0
304 -466 467 0
-303 -466 467 0
-467 -311 312 0
312 -467 468 0
-311 -467 468 0
-468 -319 320 0
320 -468 469 0
-319 -468 469 0
-469 -327 328 0
470 0
-222 223 0
223 -470 471 0
-222 -470 471 0
-471 -230 231 0
231 -471 472 0
-230 -471 472 0
-472 -238 239 0
239 -472 473 0
-238 -472 473 0
-473 -246 247 0
247 -473 474 0
-246 -473 474 0
-474 -254 255 0
255 -474 475 0
-254 -474 475 0
-475 -262 263 0
263 -475 476 0
-262 -475 476 0
-476 -270 271 0
271 -476 477 0
-270 -476 477 0
-477 -278 279 0
279 -477 478 0
-278 -477 478 0
-478 -286 287 0
287 -478 479 0
-286 -478 479 0
-479 -294 295 0
295 -479 480 0
-294 -479 480 0
-480 -302 303 0
303 -480 481 0
-302 -480 481 0
-481 -310 311 0
311 -481 482 0
-310 -481 482 0
-482 -318 319 0
319 -482 483 0
-318 -482 483 0
-483 -326 327 0
484 0
-221 222 0
222 -484 485 0
-221 -484 485 0
-485 -229 230 0
230 -485 486 0
-229 -485 486 0
-486 -237 238 0
238 -486 487 0
-237 -486 487 0
-487 -245 246 0
246 -487 488 0
-245 -487 488 0
-488 -253 254 0
254 -488 489 0
-253 -488 489 0
-489 -261 262 0
262 -489 490 0
-261 -489 490 0
-490 -269 270 0
270 -490 491 0
-269 -490 491 0
-491 -277 278 0
278 -491 492 0
-277 -491 492 0
-492 -285 286 0
286 -492 493 0
-285 -492 493 0
-493 -293 294 0
294 -493 494 0
-293 -493 494 0
-494 -301 302 0
302 -494 495 0
-301 -494 495 0
-495 -309 310 0
310 -495 496 0
-309 -495 496 0
-496 -317 318 0
318 -496 497 0
-317 -496 497 0
-497 -325 326 0
498 0
-220 221 0
221 -498 499 0
-220 -498 499 0
-499 -228 229 0
229 -499 500 0
-228 -499 500 0
-500 -236 237 0
237 -500 501 0
-236 -500 501 0
-501 -244 245 0
245 -501 502 0
-244 -501 502 0
-502 -252 253 0
253 -502 503 0
-252 -502 503 0
-503 -260 261 0
261 -503 504 0
-260 -503 504 0
-504 -268 269 0
269 -504 505 0
-268 -504 505 0
-505 -276 277 0
277 -505 506 0
-276 -505 506 0
-506 -284 285 0
285 -506 507 0
-284 -506 507 0
-507 -292 293 0
293 -507 508 0
-292 -507 508 0
-508 -300 301 0
301 -508 509 0
-300 -508 509 0
-509 -308 309 0
309 -509 510 0
-308 -509 510 0
-510 -316 317 0
317 -510 511 0
-316 -510 511 0
-511 -324 325 0
512 0
-219 220 0
220 -512 513 0
-219 -512 513 0
-513 -227 228 0
228 -513 514 0
-227 -513 514 0
-514 -235 236 0
236 -514 515 0
-235 -514 515 0
-515 -243 244 0
244 -515 516 0
-243 -515 516 0
-516 -251 252 0
252 -516 517 0
-251 -516 517 0
-517 -259 260 0
260 -517 518 0
-259 -517 518 0
-518 -267 268 0
268 -518 519 0
-267 -518 519 0
-519 -275 276 0
276 -519 520 0
-275 -519 520 0
-520 -283 284 0
284 -520 521 0
-283 -520 521 0
-521 -291 292 0
292 -521 522 0
-291 -521 522 0
-522 -299 300 0
300 -522 523 0
-299 -522 523 0
-523 -307 308 0
308 -523 524 0
-307 -523 524 0
-524 -315 316 0
316 -524 525 0
-315 -524 525 0
-525 -323 324 0
526 0
-218 219 0
219 -526 527 0
-218 -526 527 0
-527 -226 227 0
227 -527 528 0
-226 -527 528 0
-528 -234 235 0
235 -528 529 0
-234 -528 529 0
-529 -242 243 0
243 -529 530 0
-242 -529 530 0
-530 -250 251 0
251 -530 531 0
-250 -530 531 0
-531 -258 259 0
259 -531 532 0
-258 -531 532 0
-532 -266 267 0
267 -532 533 0
-266 -532 533 0
-533 -274 275 0
275 -533 534 0
-274 -533 534 0
-534 -282 283 0
283 -534 535 0
-282 -534 535 0
-535 -290 291 0
291 -535 536 0
-290 -535 536 0
-536 -298 299 0
299 -536 537 0
-298 -536 537 0
-537 -306 307 0
307 -537 538 0
-306 -537 538 0
-538 -314 315 0
315 -538 539 0
-314 -538 539 0
-539 -322 323 0
540 0
-92 93 0
93 -540 541 0
-92 -540 541 0
-541 -93 92 0
92 -541 542 0
-93 -541 542 0
-542 -106 107 0
107 -542 543 0
-106 -542 543 0
-543 -107 106 0
106 -543 544 0
-107 -543 544 0
-544 -120 121 0
121 -544 545 0
-120 -544 545 0
-545 -121 120 0
120 -545 546 0
-121 -545 546 0
-546 -134 135 0
135 -546 547 0
-134 -546 547 0
-547 -135 134 0
134 -547 548 0
-135 -547 548 0
-548 -148 149 0
149 -548 549 0
-148 -548 549 0
-549 -149 148 0
148 -549 550 0
-149 -549 550 0
-550 -162 163 0
163 -550 551 0
-162 -550 551 0
-551 -163 162 0
162 -551 552 0
-163 -551 552 0
-552 -176 177 0
177 -552 553 0
-176 -552 553 0
-553 -177 176 0
176 -553 554 0
-177 -553 554 0
-554 -190 191 0
191 -554 555 0
-190 -554 555 0
-555 -191 190 0
190 -555 556 0
-191 -555 556 0
-556 -204 205 0
205 -556 557 0
-204 -556 557 0
-557 -205 204 0
204 -557 558 0
-205 -557 558 0
-558 -218 226 0
226 -558 559 0
-218 -558 559 0
-559 -226 218 0
218 -559 560 0
-226 -559 560 0
-560 -219 227 0
227 -560 561 0
-219 -560 561 0
-561 -227 219 0
219 -561 562 0
-227 -561 562 0
-562 -220 228 0
228 -562 563 0
-220 -562 563 0
-563 -228 220 0
220 -563 564 0
-228 -563 564 0
-564 -221 229 0
229 -564 565 0
-221 -564 565 0
-565 -229 221 0
221 -565 566 0
-229 -565 566 0
-566 -222 230 0
230 -566 567 0
-222 -566 567 0
-567 -230 222 0
222 -567 568 0
-230 -567 568 0
-568 -223 231 0
569 0
-93 94 0
94 -569 570 0
-93 -569 570 0
-570 -94 93 0
93 -570 571 0
-94 -570 571 0
-571 -107 108 0
108 -571 572 0
-107 -571 572 0
-572 -108 107 0
107 -572 573 0
-108 -572 573 0
-573 -121 122 0
122 -573 574 0
-121 -573 574 0
-574 -122 121 0
121 -574 575 0
-122 -574 575 0
-575 -135 136 0
136 -575 576 0
-135 -575 576 0
-576 -136 135 0
135 -576 577 0
-136 -576 577 0
-577 -149 150 0
150 -577 578 0
-149 -577 578 0
-578 -150 149 0
149 -578 579 0
-150 -578 579 0
-579 -163 164 0
164 -579 580 0
-163 -579 580 0
-580 -164 163 0
163 -580 581 0
-164 -580 581 0
-581 -177 178 0
178 -581 582 0
-177 -581 582 0
-582 -178 177 0
177 -582 583 0
-178 -582 583 0
-583 -191 192 0
192 -583 584 0
-191 -583 584 0
-584 -192 191 0
191 -584 585 0
-192 -584 585 0
-585 -205 206 0
206 -585 586 0
-205 -585 586 0
-586 -206 205 0
205 -586 587 0
-206 -586 587 0
-587 -226 234 0
234 -587 588 0
-226 -587 588 0
-588 -234 226 0
226 -588 589 0
-234 -588 589 0
-589 -227 235 0
235 -589 590 0
-227 -589 590 0
-590 -235 227 0
227 -590 591 0
-235 -590 591 0
-591 -228 236 0
236 -591 592 0
-228 -591 592 0
-592 -236 228 0
228 -592 593 0
-236 -592 593 0
-593 -229 237 0
237 -593 594 0
-229 -593 594 0
-594 -237 229 0
229 -594 595 0
-237 -594 595 0
-595 -230 238 0
238 -595 596 0
-230 -595 596 0
-596 -238 230 0
230 -596 597 0
-238 -596 597 0
-597 -231 239 0
598 0
-94 95 0
95 -598 599 0
-94 -598 599 0
-599 -95 94 0
94 -599 600 0
-95 -599 600 0
-600 -108 109 0
109 -600 601 0
-108 -600 601 0
-601 -109 108 0
108 -601 602 0
-109 -601 602 0
-602 -122 123 0
123 -602 603 0
-122 -602 603 0
-603 -123 122 0
122 -603 604 0
-123 -603 604 0
-604 -136 137 0
137 -604 605 0
-136 -604 605 0
-605 -137 136 0
136 -605 606 0
-137 -605 606 0
-606 -150 151 0
151 -606 607 0
-150 -606 607 0
-607 -151 150 0
150 -607 608 0
-151 -607 608 0
-608 -164 165 0
165 -608 609 0
-164 -608 609 0
-609 -165 164 0
164 -609 610 0
-165 -609 610 0
-610 -178 179 0
179 -610 611 0
-178 -610 611 0
-611 -179 178 0
178 -611 612 0
-179 -611 612 0
-612 -192 193 0
193 -612 613 0
-192 -612 613 0
-613 -193 192 0
192 -613 614 0
-193 -613 614 0
-614 -206 207 0
207 -614 615 0
-206 -614 615 0
-615 -207 206 0
206 -615 616 0
-207 -615 616 0
-616 -234 242 0
242 -616 617 0
-234 -616 617 0
-617 -242 234 0
234 -617 618 0
-242 -617 618 0
-618 -235 243 0
243 -618 619 0
-235 -618 619 0
-619 -243 235 0
235 -619 620 0
-243 -619 620 0
-620 -236 244 0
244 -620 621 0
-236 -620 621 0
-621 -244 236 0
236 -621 622 0
-244 -621 622 0
-622 -237 245 0
245 -622 623 0
-237 -622 623 0
-623 -245 237 0
237 -623 624 0
-245 -623 624 0
-624 -238 246 0
246 -624 625 0
-238 -624 625 0
-625 -246 238 0
238 -625 626 0
-246 -625 626 0
-626 -239 247 0
627 0
-95 96 0
96 -627 628 0
-95 -627 628 0
-628 -96 95 0
95 -628 629 0
-96 -628 629 0
-629 -109 110 0
110 -629 630 0
-109 -629 630 0
-630 -110 109 0
109 -630 631 0
-110 -630 631 0
-631 -123 124 0
124 -631 632 0
-123 -631 632 0
-632 -124 123 0
123 -632 633 0
-124 -632 633 0
-633 -137 138 0
138 -633 634 0
-137 -633 634 0
-634 -138 137 0
137 -634 635 0
-138 -634 635 0
-635 -151 152 0
152 -635 636 0
-151 -635 636 0
-636 -152 151 0
151 -636 637 0
-152 -636 637 0
-637 -165 166 0
166 -637 638 0
-165 -637 638 0
-638 -166 165 0
165 -638 639 0
-166 -638 639 0
-639 -179 180 0
180 -639 640 0
-179 -639 640 0
-640 -180 179 0
179 -640 641 0
-180 -640 641 0
-641 -193 194 0
194 -641 642 0
-193 -641 642 0
-642 -194 193 0
193 -642 643 0
-194 -642 643 0
-643 -207 208 0
208 -643 644 0
-207 -643 644 0
-644 -208 207 0
207 -644 645 0
-208 -644 645 0
-645 -242 250 0
250 -645 646 0
-242 -645 646 0
-646 -250 242 0
242 -646 647 0
-250 -646 647 0
-647 -243 251 0
251 -647 648 0
-243 -647 648 0
-648 -251 243 0
243 -648 649 0
-251 -648 649 0
-649 -244 252 0
252 -649 650 0
-244 -649 650 0
-650 -252 244 0
244 -650 651 0
-252 -650 651 0
-651 -245 253 0
253 -651 652 0
-245 -651 652 0
-652 -253 245 0
245 -652 653 0
-253 -652 653 0
-653 -246 254 0
254 -653 654 0
-246 -653 654 0
-654 -254 246 0
246 -654 655 0
-254 -654 655 0
-655 -247 255 0
656 0
-96 97 0
97 -656 657 0
-96 -656 657 0
-657 -97 96 0
96 -657 658 0
-97 -657 658 0
-658 -110 111 0
111 -658 659 0
-110 -658 659 0
-659 -111 110 0
110 -659 660 0
-111 -659 660 0
-660 -124 125 0
125 -660 661 0
-124 -660 661 0
-661 -125 124 0
124 -661 662 0
-125 -661 662 0
-662 -138 139 0
139 -662 663 0
-138 -662 663 0
-663 -139 138 0
138 -663 664 0
-139 -663 664 0
-664 -152 153 0
153 -664 665 0
-152 -664 665 0
-665 -153 152 0
152 -665 666 0
-153 -665 666 0
-666 -166 167 0
167 -666 667 0
-166 -666 667 0
-667 -167 166 0
166 -667 668 0
-167 -667 668 0
-668 -180 181 0
181 -668 669 0
-180 -668 669 0
-669 -181 180 0
180 -669 670 0
-181 -669 670 0
-670 -194 195 0
195 -670 671 0
-194 -670 671 0
-671 -195 194 0
194 -671 672 0
-195 -671 672 0
-672 -208 209 0
209 -672 673 0
-208 -672 673 0
-673 -209 208 0
208 -673 674 0
-209 -673 674 0
-674 -250 258 0
258 -674 675 0
-250 -674 675 0
-675 -258 250 0
250 -675 676 0
-258 -675 676 0
-676 -251 259 0
259 -676 677 0
-251 -676 677 0
-677 -259 251 0
251 -677 678 0
-259 -677 678 0
-678 -252 260 0
260 -678 679 0
-252 -678 679 0
-679 -260 252 0
252 -679 680 0
-260 -679 680 0
-680 -253 261 0
261 -680 681 0
-253 -680 681 0
-681 -261 253 0
253 -681 682 0
-261 -681 682 0
-682 -254 262 0
262 -682 683 0
-254 -682 683 0
-683 -262 254 0
254 -683 684 0
-262 -683 684 0
-684 -255 263 0
685 0
-97 98 0
98 -685 686 0
-97 -685 686 0
-686 -98 97 0
97 -686 687 0
-98 -686 687 0
-687 -111 112 0
112 -687 688 0
-111 -687 688 0
-688 -112 111 0
111 -688 689 0
-112 -688 689 0
-689 -125 126 0
126 -689 690 0
-125 -689 690 0
-690 -126 125 0
125 -690 691 0
-126 -690 691 0
-691 -139 140 0
140 -691 692 0
-139 -691 692 0
-692 -140 139 0
139 -692 693 0
-140 -692 693 0
-693 -153 154 0
154 -693 694 0
-153 -693 694 0
-694 -154 153 0
153 -694 695 0
-154 -694 695 0
-695 -167 168 0
168 -695 696 0
-167 -695 696 0
-696 -168 167 0
167 -696 697 0
-168 -696 697 0
-697 -181 182 0
182 -697 698 0
-181 -697 698 0
-698 -182 181 0
181 -698 699 0
-182 -698 699 0
-699 -195 196 0
196 -699 700 0
-195 -699 700 0
-700 -196 195 0
195 -700 701 0
-196 -700 701 0
-701 -209 210 0
210 -701 702 0
-209 -701 702 0
-702 -210 209 0
209 -702 703 0
-210 -702 703 0
-703 -258 266 0
266 -703 704 0
-258 -703 704 0
-704 -266 258 0
258 -704 705 0
-266 -704 705 0
-705 -259 267 0
267 -705 706 0
-259 -705 706 0
-706 -267 259 0
259 -706 707 0
-267 -706 707 0
-707 -260 268 0
268 -707 708 0
-260 -707 708 0
-708 -268 260 0
260 -708 709 0
-268 -708 709 0
-709 -261 269 0
269 -709 710 0
-261 -709 710 0
-710 -269 261 0
261 -710 711 0
-269 -710 711 0
-711 -262 270 0
270 -711 712 0
-262 -711 712 0
-712 -270 262 0
262 -712 713 0
-270 -712 713 0
-713 -263 271 0
714 0
-98 99 0
99 -714 715 0
-98 -714 715 0
-715 -99 98 0
98 -715 716 0
-99 -715 716 0
-716 -112 113 0
113 -716 717 0
-112 -716 717 0
-717 -113 112 0
112 -717 718 0
-113 -717 718 0
-718 -126 127 0
127 -718 719 0
-126 -718 719 0
-719 -127 126 0
126 -719 720 0
-127 -719 720 0
-720 -140 141 0
141 -720 721 0
-140 -720 721 0
-721 -141 140 0
140 -721 722 0
-141 -721 722 0
-722 -154 155 0
155 -722 723 0
-154 -722 723 0
-723 -155 154 0
154 -723 724 0
-155 -723 724 0
-724 -168 169 0
169 -724 725 0
-168 -724 725 0
-725 -169 168 0
168 -725 726 0
-169 -725 726 0
-726 -182 183 0
183 -726 727 0
-182 -726 727 0
-727 -183 182 0
182 -727 728 0
-183 -727 728 0
-728 -196 197 0
197 -728 729 0
-196 -728 729 0
-729 -197 196 0
196 -729 730 0
-197 -729 730 0
-730 -210 211 0
211 -730 731 0
-210 -730 731 0
-731 -211 210 0
210 -731 732 0
-211 -731 732 0
-732 -266 274 0
274 -732 733 0
-266 -732 733 0
-733 -274 266 0
266 -733 734 0
-274 -733 734 0
-734 -267 275 0
275 -734 735 0
-267 -734 735 0
-735 -275 267 0
267 -735 736 0
-275 -735 736 0
-736 -268 276 0
276 -736 737 0
-268 -736 737 0
-737 -276 268 0
268 -737 738 0
-276 -737 738 0
-738 -269 277 0
277 -738 739 0
-269 -738 739 0
-739 -277 269 0
269 -739 740 0
-277 -739 740 0
-740 -270 278 0
278 -740 741 0
-270 -740 741 0
-741 -278 270 0
270 -741 742 0
-278 -741 742 0
-742 -271 279 0
743 0
-99 100 0
100 -743 744 0
-99 -743 744 0
-744 -100 99 0
99 -744 745 0
-100 -744 745 0
-745 -113 114 0
114 -745 746 0
-113 -745 746 0
-746 -114 113 0
113 -746 747 0
-114 -746 747 0
-747 -127 128 0
128 -747 748 0
-127 -747 748 0
-748 -128 127 0
127 -748 749 0
-128 -748 749 0
-749 -141 142 0
142 -749 750 0
-141 -749 750 0
-750 -142 141 0
141 -750 751 0
-142 -750 751 0
-751 -155 156 0
156 -751 752 0
-155 -751 752 0
-752 -156 155 0
155 -752 753 0
-156 -752 753 0
-753 -169 170 0
170 -753 754 0
-169 -753 754 0
-754 -170 169 0
169 -754 755 0
-170 -754 755 0
-755 -183 184 0
184 -755 756 0
-183 -755 756 0
-756 -184 183 0
183 -756 757 0
-184 -756 757 0
-757 -197 198 0
198 -757 758 0
-197 -757 758 0
-758 -198 197 0
197 -758 759 0
-198 -758 759 0
-759 -211 212 0
212 -759 760 0
-211 -759 760 0
-760 -212 211 0
211 -760 761 0
-212 -760 761 0
-761 -274 282 0
282 -761 762 0
-274 -761 762 0
-762 -282 274 0
274 -762 763 0
-282 -762 763 0
-763 -275 283 0
283 -763 764 0
-275 -763 764 0
-764 -283 275 0
275 -764 765 0
-283 -764 765 0
-765 -276 284 0
284 -765 766 0
-276 -765 766 0
-766 -284 276 0
276 -766 767 0
-284 -766 767 0
-767 -277 285 0
285 -767 768 0
-277 -767 768 0
-768 -285 277 0
277 -768 769 0
-285 -768 769 0
-769 -278 286 0
286 -769 770 0
-278 -769 770 0
-770 -286 278 0
278 -770 771 0
-286 -770 771 0
-771 -279 287 0
772 0
-100 101 0
101 -772 773 0
-100 -772 773 0
-773 -101 100 0
100 -773 774 0
-101 -773 774 0
-774 -114 115 0
115 -774 775 0
-114 -774 775 0
-775 -115 114 0
114 -775 776 0
-115 -775 776 0
-776 -128 129 0
129 -776 777 0
-128 -776 777 0
-777 -129 128 0
128 -777 778 0
-129 -777 778 0
-778 -142 143 0
143 -778 779 0
-142 -778 779 0
-779 -143 142 0
142 -779 780 0
-143 -779 780 0
-780 -156 157 0
157 -780 781 0
-156 -780 781 0
-781 -157 156 0
156 -781 782 0
-157 -781 782 0
-782 -170 171 0
171 -782 783 0
-170 -782 783 0
-783 -171 170 0
170 -783 784 0
-171 -783 784 0
-784 -184 185 0
185 -784 785 0
-184 -784 785 0
-785 -185 184 0
184 -785 786 0
-185 -785 786 0
-786 -198 199 0
199 -786 787 0
-198 -786 787 0
-787 -199 198 0
198 -787 788 0
-199 -787 788 0
-788 -212 213 0
213 -788 789 0
-212 -788 789 0
-789 -213 212 0
212 -789 790 0
-213 -789 790 0
-790 -282 290 0
290 -790 791 0
-282 -790 791 0
-791 -290 282 0
282 -791 792 0
-290 -791 792 0
-792 -283 291 0
291 -792 793 0
-283 -792 793 0
-793 -291 283 0
283 -793 794 0
-291 -793 794 0
-794 -284 292 0
292 -794 795 0
-284 -794 795 0
-795 -292 284 0
284 -795 796 0
-292 -795 796 0
-796 -285 293 0
293 -796 797 0
-285 -796 797 0
-797 -293 285 0
285 -797 798 0
-293 -797 798 0
-798 -286 294 0
294 -798 799 0
-286 -798 799 0
-799 -294 286 0
286 -799 800 0
-294 -799 800 0
-800 -287 295 0
801 0
-101 102 0
102 -801 802 0
-101 -801 802 0
-802 -102 101 0
101 -802 803 0
-102 -802 803 0
-803 -115 116 0
116 -803 804 0
-115 -803 804 0
-804 -116 115 0
115 -804 805 0
-116 -804 805 0
-805 -129 130 0
130 -805 806 0
-129 -805 806 0
-806 -130 129 0
129 -806 807 0
-130 -806 807 0
-807 -143 144 0
144 -807 808 0
-143 -807 808 0
-808 -144 143 0
143 -808 809 0
-144 -808 809 0
-809 -157 158 0
158 -809 810 0
-157 -809 810 0
-810 -158 157 0
157 -810 811 0
-158 -810 811 0
-811 -171 172 0
172 -811 812 0
-171 -811 812 0
-812 -172 171 0
171 -812 813 0
-172 -812 813 0
-813 -185 186 0
186 -813 814 0
-185 -813 814 0
-814 -186 185 0
185 -814 815 0
-186 -814 815 0
-815 -199 200 0
200 -815 816 0
-199 -815 816 0
-816 -200 199 0
199 -816 817 0
-200 -816 817 0
-817 -213 214 0
214 -817 818 0
-213 -817 818 0
-818 -214 213 0
213 -818 819 0
-214 -818 819 0
-819 -290 298 0
298 -819 820 0
-290 -819 820 0
-820 -298 290 0
290 -820 821 0
-298 -820 821 0
-821 -291 299 0
299 -821 822 0
-291 -821 822 0
-822 -299 291 0
291 -822 823 0
-299 -822 823 0
-823 -292 300 0
300 -823 824 0
-292 -823 824 0
-824 -300 292 0
292 -824 825 0
-300 -824 825 0
-825 -293 301 0
301 -825 826 0
-293 -825 826 0
-826 -301 293 0
293 -826 827 0
-301 -826 827 0
-827 -294 302 0
302 -827 828 0
-294 -827 828 0
-828 -302 294 0
294 -828 829 0
-302 -828 829 0
-829 -295 303 0
830 0
-102 103 0
103 -830 831 0
-102 -830 831 0
-831 -103 102 0
102 -831 832 0
-103 -831 832 0
-832 -116 117 0
117 -832 833 0
-116 -832 833 0
-833 -117 116 0
116 -833 834 0
-117 -833 834 0
-834 -130 131 0
131 -834 835 0
-130 -834 835 0
-835 -131 130 0
130 -835 836 0
-131 -835 836 0
-836 -144 145 0
145 -836 837 0
-144 -836 837 0
-837 -145 144 0
144 -837 838 0
-145 -837 838 0
-838 -158 159 0
159 -838 839 0
-158 -838 839 0
-839 -159 158 0
158 -839 840 0
-159 -839 840 0
-840 -172 173 0
173 -840 841 0
-172 -840 841 0
-841 -173 172 0
172 -841 842 0
-173 -841 842 0
-842 -186 187 0
187 -842 843 0
-186 -842 843 0
-843 -187 186 0
186 -843 844 0
-187 -843 844 0
-844 -200 201 0
201 -844 845 0
-200 -844 845 0
-845 -201 200 0
200 -845 846 0
-201 -845 846 0
-846 -214 215 0
215 -846 847 0
-214 -846 847 0
-847 -215 214 0
214 -847 848 0
-215 -847 848 0
-848 -298 306 0
306 -848 849 0
-298 -848 849 0
-849 -306 298 0
298 -849 850 0
-306 -849 850 0
-850 -299 307 0
307 -850 851 0
-299 -850 851 0
-851 -307 299 0
299 -851 852 0
-307 -851 852 0
-852 -300 308 0
308 -852 853 0
-300 -852 853 0
-853 -308 300 0
300 -853 854 0
-308 -853 854 0
-854 -301 309 0
309 -854 855 0
-301 -854 855 0
-855 -309 301 0
301 -855 856 0
-309 -855 856 0
-856 -302 310 0
310 -856 857 0
-302 -856 857 0
-857 -310 302 0
302 -857 858 0
-310 -857 858 0
-858 -303 311 0
859 0
-103 104 0
104 -859 860 0
-103 -859 860 0
-860 -104 103 0
103 -860 861 0
-104 -860 861 0
-861 -117 118 0
118 -861 862 0
-117 -861 862 0
-862 -118 117 0
117 -862 863 0
-118 -862 863 0
-863 -131 132 0
132 -863 864 0
-131 -863 864 0
-864 -132 131 0
131 -864 865 0
-132 -864 865 0
-865 -145 146 0
146 -865 866 0
-145 -865 866 0
-866 -146 145 0
145 -866 867 0
-146 -866 867 0
-867 -159 160 0
160 -867 868 0
-159 -867 868 0
-868 -160 159 0
159 -868 869 0
-160 -868 869 0
-869 -173 174 0
174 -869 870 0
-173 -869 870 0
-870 -174 173 0
173 -870 871 0
-174 -870 871 0
-871 -187 188 0
188 -871 872 0
-187 -871 872 0
-872 -188 187 0
187 -872 873 0
-188 -872 873 0
-873 -201 202 0
202 -873 874 0
-201 -873 874 0
-874 -202 201 0
201 -874 875 0
-202 -874 875 0
-875 -215 216 0
216 -875 876 0
-215 -875 876 0
-876 -216 215 0
215 -876 877 0
-216 -876 877 0
-877 -306 314 0
314 -877 878 0
-306 -877 878 0
-878 -314 306 0
306 -878 879 0
-314 -878 879 0
-879 -307 315 0
315 -879 880 0
-307 -879 880 0
-880 -315 307 0
307 -880 881 0
-315 -880 881 0
-881 -308 316 0
316 -881 882 0
-308 -881 882 0
-882 -316 308 0
308 -882 883 0
-316 -882 883 0
-883 -309 317 0
317 -883 884 0
-309 -883 884 0
-884 -317 309 0
309 -884 885 0
-317 -884 885 0
-885 -310 318 0
318 -885 886 0
-310 -885 886 0
-886 -318 310 0
310 -886 887 0
-318 -886 887 0
-887 -311 319 0
888 0
-104 105 0
105 -888 889 0
-104 -888 889 0
-889 -105 104 0
104 -889 890 0
-105 -889 890 0
-890 -118 119 0
119 -890 891 0
-118 -890 891 0
-891 -119 118 0
118 -891 892 0
-119 -891 892 0
-892 -132 133 0
133 -892 893 0
-132 -892 893 0
-893 -133 132 0
132 -893 894 0
-133 -893 894 0
-894 -146 147 0
147 -894 895 0
-146 -894 895 0
-895 -147 146 0
146 -895 896 0
-147 -895 896 0
-896 -160 161 0
161 -896 897 0
-160 -896 897 0
-897 -161 160 0
160 -897 898 0
-161 -897 898 0
-898 -174 175 0
175 -898 899 0
-174 -898 899 0
-899 -175 174 0
174 -899 900 0
-175 -899 900 0
-900 -188 189 0
189 -900 901 0
-188 -900 901 0
-901 -189 188 0
188 -901 902 0
-189 -901 902 0
-902 -202 203 0
203 -902 903 0
-202 -902 903 0
-903 -203 202 0
202 -903 904 0
-203 -903 904 0
-904 -216 217 0
217 -904 905 0
-216 -904 905 0
-905 -217 216 0
216 -905 906 0
-217 -905 906 0
-906 -314 322 0
322 -906 907 0
-314 -906 907 0
-907 -322 314 0
314 -907 908 0
-322 -907 908 0
-908 -315 323 0
323 -908 909 0
-315 -908 909 0
-909 -323 315 0
315 -909 910 0
-323 -909 910 0
-910 -316 324 0
324 -910 911 0
-316 -910 911 0
-911 -324 316 0
316 -911 912 0
-324 -911 912 0
-912 -317 325 0
325 -912 913 0
-317 -912 913 0
-913 -325 317 0
317 -913 914 0
-325 -913 914 0
-914 -318 326 0
326 -914 915 0
-318 -914 915 0
-915 -326 318 0
318 -915 916 0
-326 -915 916 0
-916 -319 327 0
