p cnf 1230 11500
211 212 213 214 215 216 217 218 219 220 221 222 223 224 225 226 227 228 229 230 231 0
232 233 234 235 236 237 238 239 240 241 242 243 244 245 246 247 248 249 250 251 252 0
253 254 255 256 257 258 259 260 261 262 263 264 265 266 267 268 269 270 271 272 273 0
274 275 276 277 278 279 280 281 282 283 284 285 286 287 288 289 290 291 292 293 294 0
295 296 297 298 299 300 301 302 303 304 305 306 307 308 309 310 311 312 313 314 315 0
316 317 318 319 320 321 322 323 324 325 326 327 328 329 330 331 332 333 334 335 336 0
-211 -212 0
-211 -213 0
-211 -214 0
-211 -215 0
-211 -216 0
-211 -217 0
-211 -218 0
-211 -219 0
-211 -220 0
-211 -221 0
-211 -222 0
-211 -223 0
-211 -224 0
-211 -225 0
-211 -226 0
-211 -227 0
-211 -228 0
-211 -229 0
-211 -230 0
-211 -231 0
-212 -213 0
-212 -214 0
-212 -215 0
-212 -216 0
-212 -217 0
-212 -218 0
-212 -219 0
-212 -220 0
-212 -221 0
-212 -222 0
-212 -223 0
-212 -224 0
-212 -225 0
-212 -226 0
-212 -227 0
-212 -228 0
-212 -229 0
-212 -230 0
-212 -231 0
-213 -214 0
-213 -215 0
-213 -216 0
-213 -217 0
-213 -218 0
-213 -219 0
-213 -220 0
-213 -221 0
-213 -222 0
-213 -223 0
-213 -224 0
-213 -225 0
-213 -226 0
-213 -227 0
-213 -228 0
-213 -229 0
-213 -230 0
-213 -231 0
-214 -215 0
-214 -216 0
-214 -217 0
-214 -218 0
-214 -219 0
-214 -220 0
-214 -221 0
-214 -222 0
-214 -223 0
-214 -224 0
-214 -225 0
-214 -226 0
-214 -227 0
-214 -228 0
-214 -229 0
-214 -230 0
-214 -231 0
-215 -216 0
-215 -217 0
-215 -218 0
-215 -219 0
-215 -220 0
-215 -221 0
-215 -222 0
-215 -223 0
-215 -224 0
-215 -225 0
-215 -226 0
-215 -227 0
-215 -228 0
-215 -229 0
-215 -230 0
-215 -231 0
-216 -217 0
-216 -218 0
-216 -219 0
-216 -220 0
-216 -221 0
-216 -222 0
-216 -223 0
-216 -224 0
-216 -225 0
-216 -226 0
-216 -227 0
-216 -228 0
-216 -229 0
-216 -230 0
-216 -231 0
-217 -218 0
-217 -219 0
-217 -220 0
-217 -221 0
-217 -222 0
-217 -223 0
-217 -224 0
-217 -225 0
-217 -226 0
-217 -227 0
-217 -228 0
-217 -229 0
-217 -230 0
-217 -231 0
-218 -219 0
-218 -220 0
-218 -221 0
-218 -222 0
-218 -223 0
-218 -224 0
-218 -225 0
-218 -226 0
-218 -227 0
-218 -228 0
-218 -229 0
-218 -230 0
-218 -231 0
-219 -220 0
-219 -221 0
-219 -222 0
-219 -223 0
-219 -224 0
-219 -225 0
-219 -226 0
-219 -227 0
-219 -228 0
-219 -229 0
-219 -230 0
-219 -231 0
-220 -221 0
-220 -222 0
-220 -223 0
-220 -224 0
-220 -225 0
-220 -226 0
-220 -227 0
-220 -228 0
-220 -229 0
-220 -230 0
-220 -231 0
-221 -222 0
-221 -223 0
-221 -224 0
-221 -225 0
-221 -226 0
-221 -227 0
-221 -228 0
-221 -229 0
-221 -230 0
-221 -231 0
-222 -223 0
-222 -224 0
-222 -225 0
-222 -226 0
-222 -227 0
-222 -228 0
-222 -229 0
-222 -230 0
-222 -231 0
-223 -224 0
-223 -225 0
-223 -226 0
-223 -227 0
-223 -228 0
-223 -229 0
-223 -230 0
-223 -231 0
-224 -225 0
-224 -226 0
-224 -227 0
-224 -228 0
-224 -229 0
-224 -230 0
-224 -231 0
-225 -226 0
-225 -227 0
-225 -228 0
-225 -229 0
-225 -230 0
-225 -231 0
-226 -227 0
-226 -228 0
-226 -229 0
-226 -230 0
-226 -231 0
-227 -228 0
-227 -229 0
-227 -230 0
-227 -231 0
-228 -229 0
-228 -230 0
-228 -231 0
-229 -230 0
-229 -231 0
-230 -231 0
-232 -233 0
-232 -234 0
-232 -235 0
-232 -236 0
-232 -237 0
-232 -238 0
-232 -239 0
-232 -240 0
-232 -241 0
-232 -242 0
-232 -243 0
-232 -244 0
-232 -245 0
-232 -246 0
-232 -247 0
-232 -248 0
-232 -249 0
-232 -250 0
-232 -251 0
-232 -252 0
-233 -234 0
-233 -235 0
-233 -236 0
-233 -237 0
-233 -238 0
-233 -239 0
-233 -240 0
-233 -241 0
-233 -242 0
-233 -243 0
-233 -244 0
-233 -245 0
-233 -246 0
-233 -247 0
-233 -248 0
-233 -249 0
-233 -250 0
-233 -251 0
-233 -252 0
-234 -235 0
-234 -236 0
-234 -237 0
-234 -238 0
-234 -239 0
-234 -240 0
-234 -241 0
-234 -242 0
-234 -243 0
-234 -244 0
-234 -245 0
-234 -246 0
-234 -247 0
-234 -248 0
-234 -249 0
-234 -250 0
-234 -251 0
-234 -252 0
-235 -236 0
-235 -237 0
-235 -238 0
-235 -239 0
-235 -240 0
-235 -241 0
-235 -242 0
-235 -243 0
-235 -244 0
-235 -245 0
-235 -246 0
-235 -247 0
-235 -248 0
-235 -249 0
-235 -250 0
-235 -251 0
-235 -252 0
-236 -237 0
-236 -238 0
-236 -239 0
-236 -240 0
-236 -241 0
-236 -242 0
-236 -243 0
-236 -244 0
-236 -245 0
-236 -246 0
-236 -247 0
-236 -248 0
-236 -249 0
-236 -250 0
-236 -251 0
-236 -252 0
-237 -238 0
-237 -239 0
-237 -240 0
-237 -241 0
-237 -242 0
-237 -243 0
-237 -244 0
-237 -245 0
-237 -246 0
-237 -247 0
-237 -248 0
-237 -249 0
-237 -250 0
-237 -251 0
-237 -252 0
-238 -239 0
-238 -240 0
-238 -241 0
-238 -242 0
-238 -243 0
-238 -244 0
-238 -245 0
-238 -246 0
-238 -247 0
-238 -248 0
-238 -249 0
-238 -250 0
-238 -251 0
-238 -252 0
-239 -240 0
-239 -241 0
-239 -242 0
-239 -243 0
-239 -244 0
-239 -245 0
-239 -246 0
-239 -247 0
-239 -248 0
-239 -249 0
-239 -250 0
-239 -251 0
-239 -252 0
-240 -241 0
-240 -242 0
-240 -243 0
-240 -244 0
-240 -245 0
-240 -246 0
-240 -247 0
-240 -248 0
-240 -249 0
-240 -250 0
-240 -251 0
-240 -252 0
-241 -242 0
-241 -243 0
-241 -244 0
-241 -245 0
-241 -246 0
-241 -247 0
-241 -248 0
-241 -249 0
-241 -250 0
-241 -251 0
-241 -252 0
-242 -243 0
-242 -244 0
-242 -245 0
-242 -246 0
-242 -247 0
-242 -248 0
-242 -249 0
-242 -250 0
-242 -251 0
-242 -252 0
-243 -244 0
-243 -245 0
-243 -246 0
-243 -247 0
-243 -248 0
-243 -249 0
-243 -250 0
-243 -251 0
-243 -252 0
-244 -245 0
-244 -246 0
-244 -247 0
-244 -248 0
-244 -249 0
-244 -250 0
-244 -251 0
-244 -252 0
-245 -246 0
-245 -247 0
-245 -248 0
-245 -249 0
-245 -250 0
-245 -251 0
-245 -252 0
-246 -247 0
-246 -248 0
-246 -249 0
-246 -250 0
-246 -251 0
-246 -252 0
-247 -248 0
-247 -249 0
-247 -250 0
-247 -251 0
-247 -252 0
-248 -249 0
-248 -250 0
-248 -251 0
-248 -252 0
-249 -250 0
-249 -251 0
-249 -252 0
-250 -251 0
-250 -252 0
-251 -252 0
-253 -254 0
-253 -255 0
-253 -256 0
-253 -257 0
-253 -258 0
-253 -259 0
-253 -260 0
-253 -261 0
-253 -262 0
-253 -263 0
-253 -264 0
-253 -265 0
-253 -266 0
-253 -267 0
-253 -268 0
-253 -269 0
-253 -270 0
-253 -271 0
-253 -272 0
-253 -273 0
-254 -255 0
-254 -256 0
-254 -257 0
-254 -258 0
-254 -259 0
-254 -260 0
-254 -261 0
-254 -262 0
-254 -263 0
-254 -264 0
-254 -265 0
-254 -266 0
-254 -267 0
-254 -268 0
-254 -269 0
-254 -270 0
-254 -271 0
-254 -272 0
-254 -273 0
-255 -256 0
-255 -257 0
-255 -258 0
-255 -259 0
-255 -260 0
-255 -261 0
-255 -262 0
-255 -263 0
-255 -264 0
-255 -265 0
-255 -266 0
-255 -267 0
-255 -268 0
-255 -269 0
-255 -270 0
-255 -271 0
-255 -272 0
-255 -273 0
-256 -257 0
-256 -258 0
-256 -259 0
-256 -260 0
-256 -261 0
-256 -262 0
-256 -263 0
-256 -264 0
-256 -265 0
-256 -266 0
-256 -267 0
-256 -268 0
-256 -269 0
-256 -270 0
-256 -271 0
-256 -272 0
-256 -273 0
-257 -258 0
-257 -259 0
-257 -260 0
-257 -261 0
-257 -262 0
-257 -263 0
-257 -264 0
-257 -265 0
-257 -266 0
-257 -267 0
-257 -268 0
-257 -269 0
-257 -270 0
-257 -271 0
-257 -272 0
-257 -273 0
-258 -259 0
-258 -260 0
-258 -261 0
-258 -262 0
-258 -263 0
-258 -264 0
-258 -265 0
-258 -266 0
-258 -267 0
-258 -268 0
-258 -269 0
-258 -270 0
-258 -271 0
-258 -272 0
-258 -273 0
-259 -260 0
-259 -261 0
-259 -262 0
-259 -263 0
-259 -264 0
-259 -265 0
-259 -266 0
-259 -267 0
-259 -268 0
-259 -269 0
-259 -270 0
-259 -271 0
-259 -272 0
-259 -273 0
-260 -261 0
-260 -262 0
-260 -263 0
-260 -264 0
-260 -265 0
-260 -266 0
-260 -267 0
-260 -268 0
-260 -269 0
-260 -270 0
-260 -271 0
-260 -272 0
-260 -273 0
-261 -262 0
-261 -263 0
-261 -264 0
-261 -265 0
-261 -266 0
-261 -267 0
-261 -268 0
-261 -269 0
-261 -270 0
-261 -271 0
-261 -272 0
-261 -273 0
-262 -263 0
-262 -264 0
-262 -265 0
-262 -266 0
-262 -267 0
-262 -268 0
-262 -269 0
-262 -270 0
-262 -271 0
-262 -272 0
-262 -273 0
-263 -264 0
-263 -265 0
-263 -266 0
-263 -267 0
-263 -268 0
-263 -269 0
-263 -270 0
-263 -271 0
-263 -272 0
-263 -273 0
-264 -265 0
-264 -266 0
-264 -267 0
-264 -268 0
-264 -269 0
-264 -270 0
-264 -271 0
-264 -272 0
-264 -273 0
-265 -266 0
-265 -267 0
-265 -268 0
-265 -269 0
-265 -270 0
-265 -271 0
-265 -272 0
-265 -273 0
-266 -267 0
-266 -268 0
-266 -269 0
-266 -270 0
-266 -271 0
-266 -272 0
-266 -273 0
-267 -268 0
-267 -269 0
-267 -270 0
-267 -271 0
-267 -272 0
-267 -273 0
-268 -269 0
-268 -270 0
-268 -271 0
-268 -272 0
-268 -273 0
-269 -270 0
-269 -271 0
-269 -272 0
-269 -273 0
-270 -271 0
-270 -272 0
-270 -273 0
-271 -272 0
-271 -273 0
-272 -273 0
-274 -275 0
-274 -276 0
-274 -277 0
-274 -278 0
-274 -279 0
-274 -280 0
-274 -281 0
-274 -282 0
-274 -283 0
-274 -284 0
-274 -285 0
-274 -286 0
-274 -287 0
-274 -288 0
-274 -289 0
-274 -290 0
-274 -291 0
-274 -292 0
-274 -293 0
-274 -294 0
-275 -276 0
-275 -277 0
-275 -278 0
-275 -279 0
-275 -280 0
-275 -281 0
-275 -282 0
-275 -283 0
-275 -284 0
-275 -285 0
-275 -286 0
-275 -287 0
-275 -288 0
-275 -289 0
-275 -290 0
-275 -291 0
-275 -292 0
-275 -293 0
-275 -294 0
-276 -277 0
-276 -278 0
-276 -279 0
-276 -280 0
-276 -281 0
-276 -282 0
-276 -283 0
-276 -284 0
-276 -285 0
-276 -286 0
-276 -287 0
-276 -288 0
-276 -289 0
-276 -290 0
-276 -291 0
-276 -292 0
-276 -293 0
-276 -294 0
-277 -278 0
-277 -279 0
-277 -280 0
-277 -281 0
-277 -282 0
-277 -283 0
-277 -284 0
-277 -285 0
-277 -286 0
-277 -287 0
-277 -288 0
-277 -289 0
-277 -290 0
-277 -291 0
-277 -292 0
-277 -293 0
-277 -294 0
-278 -279 0
-278 -280 0
-278 -281 0
-278 -282 0
-278 -283 0
-278 -284 0
-278 -285 0
-278 -286 0
-278 -287 0
-278 -288 0
-278 -289 0
-278 -290 0
-278 -291 0
-278 -292 0
-278 -293 0
-278 -294 0
-279 -280 0
-279 -281 0
-279 -282 0
-279 -283 0
-279 -284 0
-279 -285 0
-279 -286 0
-279 -287 0
-279 -288 0
-279 -289 0
-279 -290 0
-279 -291 0
-279 -292 0
-279 -293 0
-279 -294 0
-280 -281 0
-280 -282 0
-280 -283 0
-280 -284 0
-280 -285 0
-280 -286 0
-280 -287 0
-280 -288 0
-280 -289 0
-280 -290 0
-280 -291 0
-280 -292 0
-280 -293 0
-280 -294 0
-281 -282 0
-281 -283 0
-281 -284 0
-281 -285 0
-281 -286 0
-281 -287 0
-281 -288 0
-281 -289 0
-281 -290 0
-281 -291 0
-281 -292 0
-281 -293 0
-281 -294 0
-282 -283 0
-282 -284 0
-282 -285 0
-282 -286 0
-282 -287 0
-282 -288 0
-282 -289 0
-282 -290 0
-282 -291 0
-282 -292 0
-282 -293 0
-282 -294 0
-283 -284 0
-283 -285 0
-283 -286 0
-283 -287 0
-283 -288 0
-283 -289 0
-283 -290 0
-283 -291 0
-283 -292 0
-283 -293 0
-283 -294 0
-284 -285 0
-284 -286 0
-284 -287 0
-284 -288 0
-284 -289 0
-284 -290 0
-284 -291 0
-284 -292 0
-284 -293 0
-284 -294 0
-285 -286 0
-285 -287 0
-285 -288 0
-285 -289 0
-285 -290 0
-285 -291 0
-285 -292 0
-285 -293 0
-285 -294 0
-286 -287 0
-286 -288 0
-286 -289 0
-286 -290 0
-286 -291 0
-286 -292 0
-286 -293 0
-286 -294 0
-287 -288 0
-287 -289 0
-287 -290 0
-287 -291 0
-287 -292 0
-287 -293 0
-287 -294 0
-288 -289 0
-288 -290 0
-288 -291 0
-288 -292 0
-288 -293 0
-288 -294 0
-289 -290 0
-289 -291 0
-289 -292 0
-289 -293 0
-289 -294 0
-290 -291 0
-290 -292 0
-290 -293 0
-290 -294 0
-291 -292 0
-291 -293 0
-291 -294 0
-292 -293 0
-292 -294 0
-293 -294 0
-295 -296 0
-295 -297 0
-295 -298 0
-295 -299 0
-295 -300 0
-295 -301 0
-295 -302 0
-295 -303 0
-295 -304 0
-295 -305 0
-295 -306 0
-295 -307 0
-295 -308 0
-295 -309 0
-295 -310 0
-295 -311 0
-295 -312 0
-295 -313 0
-295 -314 0
-295 -315 0
-296 -297 0
-296 -298 0
-296 -299 0
-296 -300 0
-296 -301 0
-296 -302 0
-296 -303 0
-296 -304 0
-296 -305 0
-296 -306 0
-296 -307 0
-296 -308 0
-296 -309 0
-296 -310 0
-296 -311 0
-296 -312 0
-296 -313 0
-296 -314 0
-296 -315 0
-297 -298 0
-297 -299 0
-297 -300 0
-297 -301 0
-297 -302 0
-297 -303 0
-297 -304 0
-297 -305 0
-297 -306 0
-297 -307 0
-297 -308 0
-297 -309 0
-297 -310 0
-297 -311 0
-297 -312 0
-297 -313 0
-297 -314 0
-297 -315 0
-298 -299 0
-298 -300 0
-298 -301 0
-298 -302 0
-298 -303 0
-298 -304 0
-298 -305 0
-298 -306 0
-298 -307 0
-298 -308 0
-298 -309 0
-298 -310 0
-298 -311 0
-298 -312 0
-298 -313 0
-298 -314 0
-298 -315 0
-299 -300 0
-299 -301 0
-299 -302 0
-299 -303 0
-299 -304 0
-299 -305 0
-299 -306 0
-299 -307 0
-299 -308 0
-299 -309 0
-299 -310 0
-299 -311 0
-299 -312 0
-299 -313 0
-299 -314 0
-299 -315 0
-300 -301 0
-300 -302 0
-300 -303 0
-300 -304 0
-300 -305 0
-300 -306 0
-300 -307 0
-300 -308 0
-300 -309 0
-300 -310 0
-300 -311 0
-300 -312 0
-300 -313 0
-300 -314 0
-300 -315 0
-301 -302 0
-301 -303 0
-301 -304 0
-301 -305 0
-301 -306 0
-301 -307 0
-301 -308 0
-301 -309 0
-301 -310 0
-301 -311 0
-301 -312 0
-301 -313 0
-301 -314 0
-301 -315 0
-302 -303 0
-302 -304 0
-302 -305 0
-302 -306 0
-302 -307 0
-302 -308 0
-302 -309 0
-302 -310 0
-302 -311 0
-302 -312 0
-302 -313 0
-302 -314 0
-302 -315 0
-303 -304 0
-303 -305 0
-303 -306 0
-303 -307 0
-303 -308 0
-303 -309 0
-303 -310 0
-303 -311 0
-303 -312 0
-303 -313 0
-303 -314 0
-303 -315 0
-304 -305 0
-304 -306 0
-304 -307 0
-304 -308 0
-304 -309 0
-304 -310 0
-304 -311 0
-304 -312 0
-304 -313 0
-304 -314 0
-304 -315 0
-305 -306 0
-305 -307 0
-305 -308 0
-305 -309 0
-305 -310 0
-305 -311 0
-305 -312 0
-305 -313 0
-305 -314 0
-305 -315 0
-306 -307 0
-306 -308 0
-306 -309 0
-306 -310 0
-306 -311 0
-306 -312 0
-306 -313 0
-306 -314 0
-306 -315 0
-307 -308 0
-307 -309 0
-307 -310 0
-307 -311 0
-307 -312 0
-307 -313 0
-307 -314 0
-307 -315 0
-308 -309 0
-308 -310 0
-308 -311 0
-308 -312 0
-308 -313 0
-308 -314 0
-308 -315 0
-309 -310 0
-309 -311 0
-309 -312 0
-309 -313 0
-309 -314 0
-309 -315 0
-310 -311 0
-310 -312 0
-310 -313 0
-310 -314 0
-310 -315 0
-311 -312 0
-311 -313 0
-311 -314 0
-311 -315 0
-312 -313 0
-312 -314 0
-312 -315 0
-313 -314 0
-313 -315 0
-314 -315 0
-316 -317 0
-316 -318 0
-316 -319 0
-316 -320 0
-316 -321 0
-316 -322 0
-316 -323 0
-316 -324 0
-316 -325 0
-316 -326 0
-316 -327 0
-316 -328 0
-316 -329 0
-316 -330 0
-316 -331 0
-316 -332 0
-316 -333 0
-316 -334 0
-316 -335 0
-316 -336 0
-317 -318 0
-317 -319 0
-317 -320 0
-317 -321 0
-317 -322 0
-317 -323 0
-317 -324 0
-317 -325 0
-317 -326 0
-317 -327 0
-317 -328 0
-317 -329 0
-317 -330 0
-317 -331 0
-317 -332 0
-317 -333 0
-317 -334 0
-317 -335 0
-317 -336 0
-318 -319 0
-318 -320 0
-318 -321 0
-318 -322 0
-318 -323 0
-318 -324 0
-318 -325 0
-318 -326 0
-318 -327 0
-318 -328 0
-318 -329 0
-318 -330 0
-318 -331 0
-318 -332 0
-318 -333 0
-318 -334 0
-318 -335 0
-318 -336 0
-319 -320 0
-319 -321 0
-319 -322 0
-319 -323 0
-319 -324 0
-319 -325 0
-319 -326 0
-319 -327 0
-319 -328 0
-319 -329 0
-319 -330 0
-319 -331 0
-319 -332 0
-319 -333 0
-319 -334 0
-319 -335 0
-319 -336 0
-320 -321 0
-320 -322 0
-320 -323 0
-320 -324 0
-320 -325 0
-320 -326 0
-320 -327 0
-320 -328 0
-320 -329 0
-320 -330 0
-320 -331 0
-320 -332 0
-320 -333 0
-320 -334 0
-320 -335 0
-320 -336 0
-321 -322 0
-321 -323 0
-321 -324 0
-321 -325 0
-321 -326 0
-321 -327 0
-321 -328 0
-321 -329 0
-321 -330 0
-321 -331 0
-321 -332 0
-321 -333 0
-321 -334 0
-321 -335 0
-321 -336 0
-322 -323 0
-322 -324 0
-322 -325 0
-322 -326 0
-322 -327 0
-322 -328 0
-322 -329 0
-322 -330 0
-322 -331 0
-322 -332 0
-322 -333 0
-322 -334 0
-322 -335 0
-322 -336 0
-323 -324 0
-323 -325 0
-323 -326 0
-323 -327 0
-323 -328 0
-323 -329 0
-323 -330 0
-323 -331 0
-323 -332 0
-323 -333 0
-323 -334 0
-323 -335 0
-323 -336 0
-324 -325 0
-324 -326 0
-324 -327 0
-324 -328 0
-324 -329 0
-324 -330 0
-324 -331 0
-324 -332 0
-324 -333 0
-324 -334 0
-324 -335 0
-324 -336 0
-325 -326 0
-325 -327 0
-325 -328 0
-325 -329 0
-325 -330 0
-325 -331 0
-325 -332 0
-325 -333 0
-325 -334 0
-325 -335 0
-325 -336 0
-326 -327 0
-326 -328 0
-326 -329 0
-326 -330 0
-326 -331 0
-326 -332 0
-326 -333 0
-326 -334 0
-326 -335 0
-326 -336 0
-327 -328 0
-327 -329 0
-327 -330 0
-327 -331 0
-327 -332 0
-327 -333 0
-327 -334 0
-327 -335 0
-327 -336 0
-328 -329 0
-328 -330 0
-328 -331 0
-328 -332 0
-328 -333 0
-328 -334 0
-328 -335 0
-328 -336 0
-329 -330 0
-329 -331 0
-329 -332 0
-329 -333 0
-329 -334 0
-329 -335 0
-329 -336 0
-330 -331 0
-330 -332 0
-330 -333 0
-330 -334 0
-330 -335 0
-330 -336 0
-331 -332 0
-331 -333 0
-331 -334 0
-331 -335 0
-331 -336 0
-332 -333 0
-332 -334 0
-332 -335 0
-332 -336 0
-333 -334 0
-333 -335 0
-333 -336 0
-334 -335 0
-334 -336 0
-335 -336 0
-211 -232 0
-211 -253 0
-211 -274 0
-211 -295 0
-211 -316 0
-232 -253 0
-232 -274 0
-232 -295 0
-232 -316 0
-253 -274 0
-253 -295 0
-253 -316 0
-274 -295 0
-274 -316 0
-295 -316 0
-212 -233 0
-212 -254 0
-212 -275 0
-212 -296 0
-212 -317 0
-233 -254 0
-233 -275 0
-233 -296 0
-233 -317 0
-254 -275 0
-254 -296 0
-254 -317 0
-275 -296 0
-275 -317 0
-296 -317 0
-213 -234 0
-213 -255 0
-213 -276 0
-213 -297 0
-213 -318 0
-234 -255 0
-234 -276 0
-234 -297 0
-234 -318 0
-255 -276 0
-255 -297 0
-255 -318 0
-276 -297 0
-276 -318 0
-297 -318 0
-214 -235 0
-214 -256 0
-214 -277 0
-214 -298 0
-214 -319 0
-235 -256 0
-235 -277 0
-235 -298 0
-235 -319 0
-256 -277 0
-256 -298 0
-256 -319 0
-277 -298 0
-277 -319 0
-298 -319 0
-215 -236 0
-215 -257 0
-215 -278 0
-215 -299 0
-215 -320 0
-236 -257 0
-236 -278 0
-236 -299 0
-236 -320 0
-257 -278 0
-257 -299 0
-257 -320 0
-278 -299 0
-278 -320 0
-299 -320 0
-216 -237 0
-216 -258 0
-216 -279 0
-216 -300 0
-216 -321 0
-237 -258 0
-237 -279 0
-237 -300 0
-237 -321 0
-258 -279 0
-258 -300 0
-258 -321 0
-279 -300 0
-279 -321 0
-300 -321 0
-217 -238 0
-217 -259 0
-217 -280 0
-217 -301 0
-217 -322 0
-238 -259 0
-238 -280 0
-238 -301 0
-238 -322 0
-259 -280 0
-259 -301 0
-259 -322 0
-280 -301 0
-280 -322 0
-301 -322 0
-218 -239 0
-218 -260 0
-218 -281 0
-218 -302 0
-218 -323 0
-239 -260 0
-239 -281 0
-239 -302 0
-239 -323 0
-260 -281 0
-260 -302 0
-260 -323 0
-281 -302 0
-281 -323 0
-302 -323 0
-219 -240 0
-219 -261 0
-219 -282 0
-219 -303 0
-219 -324 0
-240 -261 0
-240 -282 0
-240 -303 0
-240 -324 0
-261 -282 0
-261 -303 0
-261 -324 0
-282 -303 0
-282 -324 0
-303 -324 0
-220 -241 0
-220 -262 0
-220 -283 0
-220 -304 0
-220 -325 0
-241 -262 0
-241 -283 0
-241 -304 0
-241 -325 0
-262 -283 0
-262 -304 0
-262 -325 0
-283 -304 0
-283 -325 0
-304 -325 0
-221 -242 0
-221 -263 0
-221 -284 0
-221 -305 0
-221 -326 0
-242 -263 0
-242 -284 0
-242 -305 0
-242 -326 0
-263 -284 0
-263 -305 0
-263 -326 0
-284 -305 0
-284 -326 0
-305 -326 0
-222 -243 0
-222 -264 0
-222 -285 0
-222 -306 0
-222 -327 0
-243 -264 0
-243 -285 0
-243 -306 0
-243 -327 0
-264 -285 0
-264 -306 0
-264 -327 0
-285 -306 0
-285 -327 0
-306 -327 0
-223 -244 0
-223 -265 0
-223 -286 0
-223 -307 0
-223 -328 0
-244 -265 0
-244 -286 0
-244 -307 0
-244 -328 0
-265 -286 0
-265 -307 0
-265 -328 0
-286 -307 0
-286 -328 0
-307 -328 0
-224 -245 0
-224 -266 0
-224 -287 0
-224 -308 0
-224 -329 0
-245 -266 0
-245 -287 0
-245 -308 0
-245 -329 0
-266 -287 0
-266 -308 0
-266 -329 0
-287 -308 0
-287 -329 0
-308 -329 0
-225 -246 0
-225 -267 0
-225 -288 0
-225 -309 0
-225 -330 0
-246 -267 0
-246 -288 0
-246 -309 0
-246 -330 0
-267 -288 0
-267 -309 0
-267 -330 0
-288 -309 0
-288 -330 0
-309 -330 0
-226 -247 0
-226 -268 0
-226 -289 0
-226 -310 0
-226 -331 0
-247 -268 0
-247 -289 0
-247 -310 0
-247 -331 0
-268 -289 0
-268 -310 0
-268 -331 0
-289 -310 0
-289 -331 0
-310 -331 0
-227 -248 0
-227 -269 0
-227 -290 0
-227 -311 0
-227 -332 0
-248 -269 0
-248 -290 0
-248 -311 0
-248 -332 0
-269 -290 0
-269 -311 0
-269 -332 0
-290 -311 0
-290 -332 0
-311 -332 0
-228 -249 0
-228 -270 0
-228 -291 0
-228 -312 0
-228 -333 0
-249 -270 0
-249 -291 0
-249 -312 0
-249 -333 0
-270 -291 0
-270 -312 0
-270 -333 0
-291 -312 0
-291 -333 0
-312 -333 0
-229 -250 0
-229 -271 0
-229 -292 0
-229 -313 0
-229 -334 0
-250 -271 0
-250 -292 0
-250 -313 0
-250 -334 0
-271 -292 0
-271 -313 0
-271 -334 0
-292 -313 0
-292 -334 0
-313 -334 0
-230 -251 0
-230 -272 0
-230 -293 0
-230 -314 0
-230 -335 0
-251 -272 0
-251 -293 0
-251 -314 0
-251 -335 0
-272 -293 0
-272 -314 0
-272 -335 0
-293 -314 0
-293 -335 0
-314 -335 0
-231 -252 0
-231 -273 0
-231 -294 0
-231 -315 0
-231 -336 0
-252 -273 0
-252 -294 0
-252 -315 0
-252 -336 0
-273 -294 0
-273 -315 0
-273 -336 0
-294 -315 0
-294 -336 0
-315 -336 0
1 -211 -233 0
1 -212 -232 0
1 -211 -254 0
1 -212 -253 0
1 -211 -275 0
1 -212 -274 0
1 -211 -296 0
1 -212 -295 0
1 -211 -317 0
1 -212 -316 0
1 -232 -254 0
1 -233 -253 0
1 -232 -275 0
1 -233 -274 0
1 -232 -296 0
1 -233 -295 0
1 -232 -317 0
1 -233 -316 0
1 -253 -275 0
1 -254 -274 0
1 -253 -296 0
1 -254 -295 0
1 -253 -317 0
1 -254 -316 0
1 -274 -296 0
1 -275 -295 0
1 -274 -317 0
1 -275 -316 0
1 -295 -317 0
1 -296 -316 0
2 -211 -234 0
2 -213 -232 0
2 -211 -255 0
2 -213 -253 0
2 -211 -276 0
2 -213 -274 0
2 -211 -297 0
2 -213 -295 0
2 -211 -318 0
2 -213 -316 0
2 -232 -255 0
2 -234 -253 0
2 -232 -276 0
2 -234 -274 0
2 -232 -297 0
2 -234 -295 0
2 -232 -318 0
2 -234 -316 0
2 -253 -276 0
2 -255 -274 0
2 -253 -297 0
2 -255 -295 0
2 -253 -318 0
2 -255 -316 0
2 -274 -297 0
2 -276 -295 0
2 -274 -318 0
2 -276 -316 0
2 -295 -318 0
2 -297 -316 0
3 -211 -235 0
3 -214 -232 0
3 -211 -256 0
3 -214 -253 0
3 -211 -277 0
3 -214 -274 0
3 -211 -298 0
3 -214 -295 0
3 -211 -319 0
3 -214 -316 0
3 -232 -256 0
3 -235 -253 0
3 -232 -277 0
3 -235 -274 0
3 -232 -298 0
3 -235 -295 0
3 -232 -319 0
3 -235 -316 0
3 -253 -277 0
3 -256 -274 0
3 -253 -298 0
3 -256 -295 0
3 -253 -319 0
3 -256 -316 0
3 -274 -298 0
3 -277 -295 0
3 -274 -319 0
3 -277 -316 0
3 -295 -319 0
3 -298 -316 0
4 -211 -236 0
4 -215 -232 0
4 -211 -257 0
4 -215 -253 0
4 -211 -278 0
4 -215 -274 0
4 -211 -299 0
4 -215 -295 0
4 -211 -320 0
4 -215 -316 0
4 -232 -257 0
4 -236 -253 0
4 -232 -278 0
4 -236 -274 0
4 -232 -299 0
4 -236 -295 0
4 -232 -320 0
4 -236 -316 0
4 -253 -278 0
4 -257 -274 0
4 -253 -299 0
4 -257 -295 0
4 -253 -320 0
4 -257 -316 0
4 -274 -299 0
4 -278 -295 0
4 -274 -320 0
4 -278 -316 0
4 -295 -320 0
4 -299 -316 0
5 -211 -237 0
5 -216 -232 0
5 -211 -258 0
5 -216 -253 0
5 -211 -279 0
5 -216 -274 0
5 -211 -300 0
5 -216 -295 0
5 -211 -321 0
5 -216 -316 0
5 -232 -258 0
5 -237 -253 0
5 -232 -279 0
5 -237 -274 0
5 -232 -300 0
5 -237 -295 0
5 -232 -321 0
5 -237 -316 0
5 -253 -279 0
5 -258 -274 0
5 -253 -300 0
5 -258 -295 0
5 -253 -321 0
5 -258 -316 0
5 -274 -300 0
5 -279 -295 0
5 -274 -321 0
5 -279 -316 0
5 -295 -321 0
5 -300 -316 0
6 -211 -238 0
6 -217 -232 0
6 -211 -259 0
6 -217 -253 0
6 -211 -280 0
6 -217 -274 0
6 -211 -301 0
6 -217 -295 0
6 -211 -322 0
6 -217 -316 0
6 -232 -259 0
6 -238 -253 0
6 -232 -280 0
6 -238 -274 0
6 -232 -301 0
6 -238 -295 0
6 -232 -322 0
6 -238 -316 0
6 -253 -280 0
6 -259 -274 0
6 -253 -301 0
6 -259 -295 0
6 -253 -322 0
6 -259 -316 0
6 -274 -301 0
6 -280 -295 0
6 -274 -322 0
6 -280 -316 0
6 -295 -322 0
6 -301 -316 0
7 -211 -239 0
7 -218 -232 0
7 -211 -260 0
7 -218 -253 0
7 -211 -281 0
7 -218 -274 0
7 -211 -302 0
7 -218 -295 0
7 -211 -323 0
7 -218 -316 0
7 -232 -260 0
7 -239 -253 0
7 -232 -281 0
7 -239 -274 0
7 -232 -302 0
7 -239 -295 0
7 -232 -323 0
7 -239 -316 0
7 -253 -281 0
7 -260 -274 0
7 -253 -302 0
7 -260 -295 0
7 -253 -323 0
7 -260 -316 0
7 -274 -302 0
7 -281 -295 0
7 -274 -323 0
7 -281 -316 0
7 -295 -323 0
7 -302 -316 0
8 -211 -240 0
8 -219 -232 0
8 -211 -261 0
8 -219 -253 0
8 -211 -282 0
8 -219 -274 0
8 -211 -303 0
8 -219 -295 0
8 -211 -324 0
8 -219 -316 0
8 -232 -261 0
8 -240 -253 0
8 -232 -282 0
8 -240 -274 0
8 -232 -303 0
8 -240 -295 0
8 -232 -324 0
8 -240 -316 0
8 -253 -282 0
8 -261 -274 0
8 -253 -303 0
8 -261 -295 0
8 -253 -324 0
8 -261 -316 0
8 -274 -303 0
8 -282 -295 0
8 -274 -324 0
8 -282 -316 0
8 -295 -324 0
8 -303 -316 0
9 -211 -241 0
9 -220 -232 0
9 -211 -262 0
9 -220 -253 0
9 -211 -283 0
9 -220 -274 0
9 -211 -304 0
9 -220 -295 0
9 -211 -325 0
9 -220 -316 0
9 -232 -262 0
9 -241 -253 0
9 -232 -283 0
9 -241 -274 0
9 -232 -304 0
9 -241 -295 0
9 -232 -325 0
9 -241 -316 0
9 -253 -283 0
9 -262 -274 0
9 -253 -304 0
9 -262 -295 0
9 -253 -325 0
9 -262 -316 0
9 -274 -304 0
9 -283 -295 0
9 -274 -325 0
9 -283 -316 0
9 -295 -325 0
9 -304 -316 0
10 -211 -242 0
10 -221 -232 0
10 -211 -263 0
10 -221 -253 0
10 -211 -284 0
10 -221 -274 0
10 -211 -305 0
10 -221 -295 0
10 -211 -326 0
10 -221 -316 0
10 -232 -263 0
10 -242 -253 0
10 -232 -284 0
10 -242 -274 0
10 -232 -305 0
10 -242 -295 0
10 -232 -326 0
10 -242 -316 0
10 -253 -284 0
10 -263 -274 0
10 -253 -305 0
10 -263 -295 0
10 -253 -326 0
10 -263 -316 0
10 -274 -305 0
10 -284 -295 0
10 -274 -326 0
10 -284 -316 0
10 -295 -326 0
10 -305 -316 0
11 -211 -243 0
11 -222 -232 0
11 -211 -264 0
11 -222 -253 0
11 -211 -285 0
11 -222 -274 0
11 -211 -306 0
11 -222 -295 0
11 -211 -327 0
11 -222 -316 0
11 -232 -264 0
11 -243 -253 0
11 -232 -285 0
11 -243 -274 0
11 -232 -306 0
11 -243 -295 0
11 -232 -327 0
11 -243 -316 0
11 -253 -285 0
11 -264 -274 0
11 -253 -306 0
11 -264 -295 0
11 -253 -327 0
11 -264 -316 0
11 -274 -306 0
11 -285 -295 0
11 -274 -327 0
11 -285 -316 0
11 -295 -327 0
11 -306 -316 0
12 -211 -244 0
12 -223 -232 0
12 -211 -265 0
12 -223 -253 0
12 -211 -286 0
12 -223 -274 0
12 -211 -307 0
12 -223 -295 0
12 -211 -328 0
12 -223 -316 0
12 -232 -265 0
12 -244 -253 0
12 -232 -286 0
12 -244 -274 0
12 -232 -307 0
12 -244 -295 0
12 -232 -328 0
12 -244 -316 0
12 -253 -286 0
12 -265 -274 0
12 -253 -307 0
12 -265 -295 0
12 -253 -328 0
12 -265 -316 0
12 -274 -307 0
12 -286 -295 0
12 -274 -328 0
12 -286 -316 0
12 -295 -328 0
12 -307 -316 0
13 -211 -245 0
13 -224 -232 0
13 -211 -266 0
13 -224 -253 0
13 -211 -287 0
13 -224 -274 0
13 -211 -308 0
13 -224 -295 0
13 -211 -329 0
13 -224 -316 0
13 -232 -266 0
13 -245 -253 0
13 -232 -287 0
13 -245 -274 0
13 -232 -308 0
13 -245 -295 0
13 -232 -329 0
13 -245 -316 0
13 -253 -287 0
13 -266 -274 0
13 -253 -308 0
13 -266 -295 0
13 -253 -329 0
13 -266 -316 0
13 -274 -308 0
13 -287 -295 0
13 -274 -329 0
13 -287 -316 0
13 -295 -329 0
13 -308 -316 0
14 -211 -246 0
14 -225 -232 0
14 -211 -267 0
14 -225 -253 0
14 -211 -288 0
14 -225 -274 0
14 -211 -309 0
14 -225 -295 0
14 -211 -330 0
14 -225 -316 0
14 -232 -267 0
14 -246 -253 0
14 -232 -288 0
14 -246 -274 0
14 -232 -309 0
14 -246 -295 0
14 -232 -330 0
14 -246 -316 0
14 -253 -288 0
14 -267 -274 0
14 -253 -309 0
14 -267 -295 0
14 -253 -330 0
14 -267 -316 0
14 -274 -309 0
14 -288 -295 0
14 -274 -330 0
14 -288 -316 0
14 -295 -330 0
14 -309 -316 0
15 -211 -247 0
15 -226 -232 0
15 -211 -268 0
15 -226 -253 0
15 -211 -289 0
15 -226 -274 0
15 -211 -310 0
15 -226 -295 0
15 -211 -331 0
15 -226 -316 0
15 -232 -268 0
15 -247 -253 0
15 -232 -289 0
15 -247 -274 0
15 -232 -310 0
15 -247 -295 0
15 -232 -331 0
15 -247 -316 0
15 -253 -289 0
15 -268 -274 0
15 -253 -310 0
15 -268 -295 0
15 -253 -331 0
15 -268 -316 0
15 -274 -310 0
15 -289 -295 0
15 -274 -331 0
15 -289 -316 0
15 -295 -331 0
15 -310 -316 0
16 -211 -248 0
16 -227 -232 0
16 -211 -269 0
16 -227 -253 0
16 -211 -290 0
16 -227 -274 0
16 -211 -311 0
16 -227 -295 0
16 -211 -332 0
16 -227 -316 0
16 -232 -269 0
16 -248 -253 0
16 -232 -290 0
16 -248 -274 0
16 -232 -311 0
16 -248 -295 0
16 -232 -332 0
16 -248 -316 0
16 -253 -290 0
16 -269 -274 0
16 -253 -311 0
16 -269 -295 0
16 -253 -332 0
16 -269 -316 0
16 -274 -311 0
16 -290 -295 0
16 -274 -332 0
16 -290 -316 0
16 -295 -332 0
16 -311 -316 0
17 -211 -249 0
17 -228 -232 0
17 -211 -270 0
17 -228 -253 0
17 -211 -291 0
17 -228 -274 0
17 -211 -312 0
17 -228 -295 0
17 -211 -333 0
17 -228 -316 0
17 -232 -270 0
17 -249 -253 0
17 -232 -291 0
17 -249 -274 0
17 -232 -312 0
17 -249 -295 0
17 -232 -333 0
17 -249 -316 0
17 -253 -291 0
17 -270 -274 0
17 -253 -312 0
17 -270 -295 0
17 -253 -333 0
17 -270 -316 0
17 -274 -312 0
17 -291 -295 0
17 -274 -333 0
17 -291 -316 0
17 -295 -333 0
17 -312 -316 0
18 -211 -250 0
18 -229 -232 0
18 -211 -271 0
18 -229 -253 0
18 -211 -292 0
18 -229 -274 0
18 -211 -313 0
18 -229 -295 0
18 -211 -334 0
18 -229 -316 0
18 -232 -271 0
18 -250 -253 0
18 -232 -292 0
18 -250 -274 0
18 -232 -313 0
18 -250 -295 0
18 -232 -334 0
18 -250 -316 0
18 -253 -292 0
18 -271 -274 0
18 -253 -313 0
18 -271 -295 0
18 -253 -334 0
18 -271 -316 0
18 -274 -313 0
18 -292 -295 0
18 -274 -334 0
18 -292 -316 0
18 -295 -334 0
18 -313 -316 0
19 -211 -251 0
19 -230 -232 0
19 -211 -272 0
19 -230 -253 0
19 -211 -293 0
19 -230 -274 0
19 -211 -314 0
19 -230 -295 0
19 -211 -335 0
19 -230 -316 0
19 -232 -272 0
19 -251 -253 0
19 -232 -293 0
19 -251 -274 0
19 -232 -314 0
19 -251 -295 0
19 -232 -335 0
19 -251 -316 0
19 -253 -293 0
19 -272 -274 0
19 -253 -314 0
19 -272 -295 0
19 -253 -335 0
19 -272 -316 0
19 -274 -314 0
19 -293 -295 0
19 -274 -335 0
19 -293 -316 0
19 -295 -335 0
19 -314 -316 0
20 -211 -252 0
20 -231 -232 0
20 -211 -273 0
20 -231 -253 0
20 -211 -294 0
20 -231 -274 0
20 -211 -315 0
20 -231 -295 0
20 -211 -336 0
20 -231 -316 0
20 -232 -273 0
20 -252 -253 0
20 -232 -294 0
20 -252 -274 0
20 -232 -315 0
20 -252 -295 0
20 -232 -336 0
20 -252 -316 0
20 -253 -294 0
20 -273 -274 0
20 -253 -315 0
20 -273 -295 0
20 -253 -336 0
20 -273 -316 0
20 -274 -315 0
20 -294 -295 0
20 -274 -336 0
20 -294 -316 0
20 -295 -336 0
20 -315 -316 0
21 -212 -234 0
21 -213 -233 0
21 -212 -255 0
21 -213 -254 0
21 -212 -276 0
21 -213 -275 0
21 -212 -297 0
21 -213 -296 0
21 -212 -318 0
21 -213 -317 0
21 -233 -255 0
21 -234 -254 0
21 -233 -276 0
21 -234 -275 0
21 -233 -297 0
21 -234 -296 0
21 -233 -318 0
21 -234 -317 0
21 -254 -276 0
21 -255 -275 0
21 -254 -297 0
21 -255 -296 0
21 -254 -318 0
21 -255 -317 0
21 -275 -297 0
21 -276 -296 0
21 -275 -318 0
21 -276 -317 0
21 -296 -318 0
21 -297 -317 0
22 -212 -235 0
22 -214 -233 0
22 -212 -256 0
22 -214 -254 0
22 -212 -277 0
22 -214 -275 0
22 -212 -298 0
22 -214 -296 0
22 -212 -319 0
22 -214 -317 0
22 -233 -256 0
22 -235 -254 0
22 -233 -277 0
22 -235 -275 0
22 -233 -298 0
22 -235 -296 0
22 -233 -319 0
22 -235 -317 0
22 -254 -277 0
22 -256 -275 0
22 -254 -298 0
22 -256 -296 0
22 -254 -319 0
22 -256 -317 0
22 -275 -298 0
22 -277 -296 0
22 -275 -319 0
22 -277 -317 0
22 -296 -319 0
22 -298 -317 0
23 -212 -236 0
23 -215 -233 0
23 -212 -257 0
23 -215 -254 0
23 -212 -278 0
23 -215 -275 0
23 -212 -299 0
23 -215 -296 0
23 -212 -320 0
23 -215 -317 0
23 -233 -257 0
23 -236 -254 0
23 -233 -278 0
23 -236 -275 0
23 -233 -299 0
23 -236 -296 0
23 -233 -320 0
23 -236 -317 0
23 -254 -278 0
23 -257 -275 0
23 -254 -299 0
23 -257 -296 0
23 -254 -320 0
23 -257 -317 0
23 -275 -299 0
23 -278 -296 0
23 -275 -320 0
23 -278 -317 0
23 -296 -320 0
23 -299 -317 0
24 -212 -237 0
24 -216 -233 0
24 -212 -258 0
24 -216 -254 0
24 -212 -279 0
24 -216 -275 0
24 -212 -300 0
24 -216 -296 0
24 -212 -321 0
24 -216 -317 0
24 -233 -258 0
24 -237 -254 0
24 -233 -279 0
24 -237 -275 0
24 -233 -300 0
24 -237 -296 0
24 -233 -321 0
24 -237 -317 0
24 -254 -279 0
24 -258 -275 0
24 -254 -300 0
24 -258 -296 0
24 -254 -321 0
24 -258 -317 0
24 -275 -300 0
24 -279 -296 0
24 -275 -321 0
24 -279 -317 0
24 -296 -321 0
24 -300 -317 0
25 -212 -238 0
25 -217 -233 0
25 -212 -259 0
25 -217 -254 0
25 -212 -280 0
25 -217 -275 0
25 -212 -301 0
25 -217 -296 0
25 -212 -322 0
25 -217 -317 0
25 -233 -259 0
25 -238 -254 0
25 -233 -280 0
25 -238 -275 0
25 -233 -301 0
25 -238 -296 0
25 -233 -322 0
25 -238 -317 0
25 -254 -280 0
25 -259 -275 0
25 -254 -301 0
25 -259 -296 0
25 -254 -322 0
25 -259 -317 0
25 -275 -301 0
25 -280 -296 0
25 -275 -322 0
25 -280 -317 0
25 -296 -322 0
25 -301 -317 0
26 -212 -239 0
26 -218 -233 0
26 -212 -260 0
26 -218 -254 0
26 -212 -281 0
26 -218 -275 0
26 -212 -302 0
26 -218 -296 0
26 -212 -323 0
26 -218 -317 0
26 -233 -260 0
26 -239 -254 0
26 -233 -281 0
26 -239 -275 0
26 -233 -302 0
26 -239 -296 0
26 -233 -323 0
26 -239 -317 0
26 -254 -281 0
26 -260 -275 0
26 -254 -302 0
26 -260 -296 0
26 -254 -323 0
26 -260 -317 0
26 -275 -302 0
26 -281 -296 0
26 -275 -323 0
26 -281 -317 0
26 -296 -323 0
26 -302 -317 0
27 -212 -240 0
27 -219 -233 0
27 -212 -261 0
27 -219 -254 0
27 -212 -282 0
27 -219 -275 0
27 -212 -303 0
27 -219 -296 0
27 -212 -324 0
27 -219 -317 0
27 -233 -261 0
27 -240 -254 0
27 -233 -282 0
27 -240 -275 0
27 -233 -303 0
27 -240 -296 0
27 -233 -324 0
27 -240 -317 0
27 -254 -282 0
27 -261 -275 0
27 -254 -303 0
27 -261 -296 0
27 -254 -324 0
27 -261 -317 0
27 -275 -303 0
27 -282 -296 0
27 -275 -324 0
27 -282 -317 0
27 -296 -324 0
27 -303 -317 0
28 -212 -241 0
28 -220 -233 0
28 -212 -262 0
28 -220 -254 0
28 -212 -283 0
28 -220 -275 0
28 -212 -304 0
28 -220 -296 0
28 -212 -325 0
28 -220 -317 0
28 -233 -262 0
28 -241 -254 0
28 -233 -283 0
28 -241 -275 0
28 -233 -304 0
28 -241 -296 0
28 -233 -325 0
28 -241 -317 0
28 -254 -283 0
28 -262 -275 0
28 -254 -304 0
28 -262 -296 0
28 -254 -325 0
28 -262 -317 0
28 -275 -304 0
28 -283 -296 0
28 -275 -325 0
28 -283 -317 0
28 -296 -325 0
28 -304 -317 0
29 -212 -242 0
29 -221 -233 0
29 -212 -263 0
29 -221 -254 0
29 -212 -284 0
29 -221 -275 0
29 -212 -305 0
29 -221 -296 0
29 -212 -326 0
29 -221 -317 0
29 -233 -263 0
29 -242 -254 0
29 -233 -284 0
29 -242 -275 0
29 -233 -305 0
29 -242 -296 0
29 -233 -326 0
29 -242 -317 0
29 -254 -284 0
29 -263 -275 0
29 -254 -305 0
29 -263 -296 0
29 -254 -326 0
29 -263 -317 0
29 -275 -305 0
29 -284 -296 0
29 -275 -326 0
29 -284 -317 0
29 -296 -326 0
29 -305 -317 0
30 -212 -243 0
30 -222 -233 0
30 -212 -264 0
30 -222 -254 0
30 -212 -285 0
30 -222 -275 0
30 -212 -306 0
30 -222 -296 0
30 -212 -327 0
30 -222 -317 0
30 -233 -264 0
30 -243 -254 0
30 -233 -285 0
30 -243 -275 0
30 -233 -306 0
30 -243 -296 0
30 -233 -327 0
30 -243 -317 0
30 -254 -285 0
30 -264 -275 0
30 -254 -306 0
30 -264 -296 0
30 -254 -327 0
30 -264 -317 0
30 -275 -306 0
30 -285 -296 0
30 -275 -327 0
30 -285 -317 0
30 -296 -327 0
30 -306 -317 0
31 -212 -244 0
31 -223 -233 0
31 -212 -265 0
31 -223 -254 0
31 -212 -286 0
31 -223 -275 0
31 -212 -307 0
31 -223 -296 0
31 -212 -328 0
31 -223 -317 0
31 -233 -265 0
31 -244 -254 0
31 -233 -286 0
31 -244 -275 0
31 -233 -307 0
31 -244 -296 0
31 -233 -328 0
31 -244 -317 0
31 -254 -286 0
31 -265 -275 0
31 -254 -307 0
31 -265 -296 0
31 -254 -328 0
31 -265 -317 0
31 -275 -307 0
31 -286 -296 0
31 -275 -328 0
31 -286 -317 0
31 -296 -328 0
31 -307 -317 0
32 -212 -245 0
32 -224 -233 0
32 -212 -266 0
32 -224 -254 0
32 -212 -287 0
32 -224 -275 0
32 -212 -308 0
32 -224 -296 0
32 -212 -329 0
32 -224 -317 0
32 -233 -266 0
32 -245 -254 0
32 -233 -287 0
32 -245 -275 0
32 -233 -308 0
32 -245 -296 0
32 -233 -329 0
32 -245 -317 0
32 -254 -287 0
32 -266 -275 0
32 -254 -308 0
32 -266 -296 0
32 -254 -329 0
32 -266 -317 0
32 -275 -308 0
32 -287 -296 0
32 -275 -329 0
32 -287 -317 0
32 -296 -329 0
32 -308 -317 0
33 -212 -246 0
33 -225 -233 0
33 -212 -267 0
33 -225 -254 0
33 -212 -288 0
33 -225 -275 0
33 -212 -309 0
33 -225 -296 0
33 -212 -330 0
33 -225 -317 0
33 -233 -267 0
33 -246 -254 0
33 -233 -288 0
33 -246 -275 0
33 -233 -309 0
33 -246 -296 0
33 -233 -330 0
33 -246 -317 0
33 -254 -288 0
33 -267 -275 0
33 -254 -309 0
33 -267 -296 0
33 -254 -330 0
33 -267 -317 0
33 -275 -309 0
33 -288 -296 0
33 -275 -330 0
33 -288 -317 0
33 -296 -330 0
33 -309 -317 0
34 -212 -247 0
34 -226 -233 0
34 -212 -268 0
34 -226 -254 0
34 -212 -289 0
34 -226 -275 0
34 -212 -310 0
34 -226 -296 0
34 -212 -331 0
34 -226 -317 0
34 -233 -268 0
34 -247 -254 0
34 -233 -289 0
34 -247 -275 0
34 -233 -310 0
34 -247 -296 0
34 -233 -331 0
34 -247 -317 0
34 -254 -289 0
34 -268 -275 0
34 -254 -310 0
34 -268 -296 0
34 -254 -331 0
34 -268 -317 0
34 -275 -310 0
34 -289 -296 0
34 -275 -331 0
34 -289 -317 0
34 -296 -331 0
34 -310 -317 0
35 -212 -248 0
35 -227 -233 0
35 -212 -269 0
35 -227 -254 0
35 -212 -290 0
35 -227 -275 0
35 -212 -311 0
35 -227 -296 0
35 -212 -332 0
35 -227 -317 0
35 -233 -269 0
35 -248 -254 0
35 -233 -290 0
35 -248 -275 0
35 -233 -311 0
35 -248 -296 0
35 -233 -332 0
35 -248 -317 0
35 -254 -290 0
35 -269 -275 0
35 -254 -311 0
35 -269 -296 0
35 -254 -332 0
35 -269 -317 0
35 -275 -311 0
35 -290 -296 0
35 -275 -332 0
35 -290 -317 0
35 -296 -332 0
35 -311 -317 0
36 -212 -249 0
36 -228 -233 0
36 -212 -270 0
36 -228 -254 0
36 -212 -291 0
36 -228 -275 0
36 -212 -312 0
36 -228 -296 0
36 -212 -333 0
36 -228 -317 0
36 -233 -270 0
36 -249 -254 0
36 -233 -291 0
36 -249 -275 0
36 -233 -312 0
36 -249 -296 0
36 -233 -333 0
36 -249 -317 0
36 -254 -291 0
36 -270 -275 0
36 -254 -312 0
36 -270 -296 0
36 -254 -333 0
36 -270 -317 0
36 -275 -312 0
36 -291 -296 0
36 -275 -333 0
36 -291 -317 0
36 -296 -333 0
36 -312 -317 0
37 -212 -250 0
37 -229 -233 0
37 -212 -271 0
37 -229 -254 0
37 -212 -292 0
37 -229 -275 0
37 -212 -313 0
37 -229 -296 0
37 -212 -334 0
37 -229 -317 0
37 -233 -271 0
37 -250 -254 0
37 -233 -292 0
37 -250 -275 0
37 -233 -313 0
37 -250 -296 0
37 -233 -334 0
37 -250 -317 0
37 -254 -292 0
37 -271 -275 0
37 -254 -313 0
37 -271 -296 0
37 -254 -334 0
37 -271 -317 0
37 -275 -313 0
37 -292 -296 0
37 -275 -334 0
37 -292 -317 0
37 -296 -334 0
37 -313 -317 0
38 -212 -251 0
38 -230 -233 0
38 -212 -272 0
38 -230 -254 0
38 -212 -293 0
38 -230 -275 0
38 -212 -314 0
38 -230 -296 0
38 -212 -335 0
38 -230 -317 0
38 -233 -272 0
38 -251 -254 0
38 -233 -293 0
38 -251 -275 0
38 -233 -314 0
38 -251 -296 0
38 -233 -335 0
38 -251 -317 0
38 -254 -293 0
38 -272 -275 0
38 -254 -314 0
38 -272 -296 0
38 -254 -335 0
38 -272 -317 0
38 -275 -314 0
38 -293 -296 0
38 -275 -335 0
38 -293 -317 0
38 -296 -335 0
38 -314 -317 0
39 -212 -252 0
39 -231 -233 0
39 -212 -273 0
39 -231 -254 0
39 -212 -294 0
39 -231 -275 0
39 -212 -315 0
39 -231 -296 0
39 -212 -336 0
39 -231 -317 0
39 -233 -273 0
39 -252 -254 0
39 -233 -294 0
39 -252 -275 0
39 -233 -315 0
39 -252 -296 0
39 -233 -336 0
39 -252 -317 0
39 -254 -294 0
39 -273 -275 0
39 -254 -315 0
39 -273 -296 0
39 -254 -336 0
39 -273 -317 0
39 -275 -315 0
39 -294 -296 0
39 -275 -336 0
39 -294 -317 0
39 -296 -336 0
39 -315 -317 0
40 -213 -235 0
40 -214 -234 0
40 -213 -256 0
40 -214 -255 0
40 -213 -277 0
40 -214 -276 0
40 -213 -298 0
40 -214 -297 0
40 -213 -319 0
40 -214 -318 0
40 -234 -256 0
40 -235 -255 0
40 -234 -277 0
40 -235 -276 0
40 -234 -298 0
40 -235 -297 0
40 -234 -319 0
40 -235 -318 0
40 -255 -277 0
40 -256 -276 0
40 -255 -298 0
40 -256 -297 0
40 -255 -319 0
40 -256 -318 0
40 -276 -298 0
40 -277 -297 0
40 -276 -319 0
40 -277 -318 0
40 -297 -319 0
40 -298 -318 0
41 -213 -236 0
41 -215 -234 0
41 -213 -257 0
41 -215 -255 0
41 -213 -278 0
41 -215 -276 0
41 -213 -299 0
41 -215 -297 0
41 -213 -320 0
41 -215 -318 0
41 -234 -257 0
41 -236 -255 0
41 -234 -278 0
41 -236 -276 0
41 -234 -299 0
41 -236 -297 0
41 -234 -320 0
41 -236 -318 0
41 -255 -278 0
41 -257 -276 0
41 -255 -299 0
41 -257 -297 0
41 -255 -320 0
41 -257 -318 0
41 -276 -299 0
41 -278 -297 0
41 -276 -320 0
41 -278 -318 0
41 -297 -320 0
41 -299 -318 0
42 -213 -237 0
42 -216 -234 0
42 -213 -258 0
42 -216 -255 0
42 -213 -279 0
42 -216 -276 0
42 -213 -300 0
42 -216 -297 0
42 -213 -321 0
42 -216 -318 0
42 -234 -258 0
42 -237 -255 0
42 -234 -279 0
42 -237 -276 0
42 -234 -300 0
42 -237 -297 0
42 -234 -321 0
42 -237 -318 0
42 -255 -279 0
42 -258 -276 0
42 -255 -300 0
42 -258 -297 0
42 -255 -321 0
42 -258 -318 0
42 -276 -300 0
42 -279 -297 0
42 -276 -321 0
42 -279 -318 0
42 -297 -321 0
42 -300 -318 0
43 -213 -238 0
43 -217 -234 0
43 -213 -259 0
43 -217 -255 0
43 -213 -280 0
43 -217 -276 0
43 -213 -301 0
43 -217 -297 0
43 -213 -322 0
43 -217 -318 0
43 -234 -259 0
43 -238 -255 0
43 -234 -280 0
43 -238 -276 0
43 -234 -301 0
43 -238 -297 0
43 -234 -322 0
43 -238 -318 0
43 -255 -280 0
43 -259 -276 0
43 -255 -301 0
43 -259 -297 0
43 -255 -322 0
43 -259 -318 0
43 -276 -301 0
43 -280 -297 0
43 -276 -322 0
43 -280 -318 0
43 -297 -322 0
43 -301 -318 0
44 -213 -239 0
44 -218 -234 0
44 -213 -260 0
44 -218 -255 0
44 -213 -281 0
44 -218 -276 0
44 -213 -302 0
44 -218 -297 0
44 -213 -323 0
44 -218 -318 0
44 -234 -260 0
44 -239 -255 0
44 -234 -281 0
44 -239 -276 0
44 -234 -302 0
44 -239 -297 0
44 -234 -323 0
44 -239 -318 0
44 -255 -281 0
44 -260 -276 0
44 -255 -302 0
44 -260 -297 0
44 -255 -323 0
44 -260 -318 0
44 -276 -302 0
44 -281 -297 0
44 -276 -323 0
44 -281 -318 0
44 -297 -323 0
44 -302 -318 0
45 -213 -240 0
45 -219 -234 0
45 -213 -261 0
45 -219 -255 0
45 -213 -282 0
45 -219 -276 0
45 -213 -303 0
45 -219 -297 0
45 -213 -324 0
45 -219 -318 0
45 -234 -261 0
45 -240 -255 0
45 -234 -282 0
45 -240 -276 0
45 -234 -303 0
45 -240 -297 0
45 -234 -324 0
45 -240 -318 0
45 -255 -282 0
45 -261 -276 0
45 -255 -303 0
45 -261 -297 0
45 -255 -324 0
45 -261 -318 0
45 -276 -303 0
45 -282 -297 0
45 -276 -324 0
45 -282 -318 0
45 -297 -324 0
45 -303 -318 0
46 -213 -241 0
46 -220 -234 0
46 -213 -262 0
46 -220 -255 0
46 -213 -283 0
46 -220 -276 0
46 -213 -304 0
46 -220 -297 0
46 -213 -325 0
46 -220 -318 0
46 -234 -262 0
46 -241 -255 0
46 -234 -283 0
46 -241 -276 0
46 -234 -304 0
46 -241 -297 0
46 -234 -325 0
46 -241 -318 0
46 -255 -283 0
46 -262 -276 0
46 -255 -304 0
46 -262 -297 0
46 -255 -325 0
46 -262 -318 0
46 -276 -304 0
46 -283 -297 0
46 -276 -325 0
46 -283 -318 0
46 -297 -325 0
46 -304 -318 0
47 -213 -242 0
47 -221 -234 0
47 -213 -263 0
47 -221 -255 0
47 -213 -284 0
47 -221 -276 0
47 -213 -305 0
47 -221 -297 0
47 -213 -326 0
47 -221 -318 0
47 -234 -263 0
47 -242 -255 0
47 -234 -284 0
47 -242 -276 0
47 -234 -305 0
47 -242 -297 0
47 -234 -326 0
47 -242 -318 0
47 -255 -284 0
47 -263 -276 0
47 -255 -305 0
47 -263 -297 0
47 -255 -326 0
47 -263 -318 0
47 -276 -305 0
47 -284 -297 0
47 -276 -326 0
47 -284 -318 0
47 -297 -326 0
47 -305 -318 0
48 -213 -243 0
48 -222 -234 0
48 -213 -264 0
48 -222 -255 0
48 -213 -285 0
48 -222 -276 0
48 -213 -306 0
48 -222 -297 0
48 -213 -327 0
48 -222 -318 0
48 -234 -264 0
48 -243 -255 0
48 -234 -285 0
48 -243 -276 0
48 -234 -306 0
48 -243 -297 0
48 -234 -327 0
48 -243 -318 0
48 -255 -285 0
48 -264 -276 0
48 -255 -306 0
48 -264 -297 0
48 -255 -327 0
48 -264 -318 0
48 -276 -306 0
48 -285 -297 0
48 -276 -327 0
48 -285 -318 0
48 -297 -327 0
48 -306 -318 0
49 -213 -244 0
49 -223 -234 0
49 -213 -265 0
49 -223 -255 0
49 -213 -286 0
49 -223 -276 0
49 -213 -307 0
49 -223 -297 0
49 -213 -328 0
49 -223 -318 0
49 -234 -265 0
49 -244 -255 0
49 -234 -286 0
49 -244 -276 0
49 -234 -307 0
49 -244 -297 0
49 -234 -328 0
49 -244 -318 0
49 -255 -286 0
49 -265 -276 0
49 -255 -307 0
49 -265 -297 0
49 -255 -328 0
49 -265 -318 0
49 -276 -307 0
49 -286 -297 0
49 -276 -328 0
49 -286 -318 0
49 -297 -328 0
49 -307 -318 0
50 -213 -245 0
50 -224 -234 0
50 -213 -266 0
50 -224 -255 0
50 -213 -287 0
50 -224 -276 0
50 -213 -308 0
50 -224 -297 0
50 -213 -329 0
50 -224 -318 0
50 -234 -266 0
50 -245 -255 0
50 -234 -287 0
50 -245 -276 0
50 -234 -308 0
50 -245 -297 0
50 -234 -329 0
50 -245 -318 0
50 -255 -287 0
50 -266 -276 0
50 -255 -308 0
50 -266 -297 0
50 -255 -329 0
50 -266 -318 0
50 -276 -308 0
50 -287 -297 0
50 -276 -329 0
50 -287 -318 0
50 -297 -329 0
50 -308 -318 0
51 -213 -246 0
51 -225 -234 0
51 -213 -267 0
51 -225 -255 0
51 -213 -288 0
51 -225 -276 0
51 -213 -309 0
51 -225 -297 0
51 -213 -330 0
51 -225 -318 0
51 -234 -267 0
51 -246 -255 0
51 -234 -288 0
51 -246 -276 0
51 -234 -309 0
51 -246 -297 0
51 -234 -330 0
51 -246 -318 0
51 -255 -288 0
51 -267 -276 0
51 -255 -309 0
51 -267 -297 0
51 -255 -330 0
51 -267 -318 0
51 -276 -309 0
51 -288 -297 0
51 -276 -330 0
51 -288 -318 0
51 -297 -330 0
51 -309 -318 0
52 -213 -247 0
52 -226 -234 0
52 -213 -268 0
52 -226 -255 0
52 -213 -289 0
52 -226 -276 0
52 -213 -310 0
52 -226 -297 0
52 -213 -331 0
52 -226 -318 0
52 -234 -268 0
52 -247 -255 0
52 -234 -289 0
52 -247 -276 0
52 -234 -310 0
52 -247 -297 0
52 -234 -331 0
52 -247 -318 0
52 -255 -289 0
52 -268 -276 0
52 -255 -310 0
52 -268 -297 0
52 -255 -331 0
52 -268 -318 0
52 -276 -310 0
52 -289 -297 0
52 -276 -331 0
52 -289 -318 0
52 -297 -331 0
52 -310 -318 0
53 -213 -248 0
53 -227 -234 0
53 -213 -269 0
53 -227 -255 0
53 -213 -290 0
53 -227 -276 0
53 -213 -311 0
53 -227 -297 0
53 -213 -332 0
53 -227 -318 0
53 -234 -269 0
53 -248 -255 0
53 -234 -290 0
53 -248 -276 0
53 -234 -311 0
53 -248 -297 0
53 -234 -332 0
53 -248 -318 0
53 -255 -290 0
53 -269 -276 0
53 -255 -311 0
53 -269 -297 0
53 -255 -332 0
53 -269 -318 0
53 -276 -311 0
53 -290 -297 0
53 -276 -332 0
53 -290 -318 0
53 -297 -332 0
53 -311 -318 0
54 -213 -249 0
54 -228 -234 0
54 -213 -270 0
54 -228 -255 0
54 -213 -291 0
54 -228 -276 0
54 -213 -312 0
54 -228 -297 0
54 -213 -333 0
54 -228 -318 0
54 -234 -270 0
54 -249 -255 0
54 -234 -291 0
54 -249 -276 0
54 -234 -312 0
54 -249 -297 0
54 -234 -333 0
54 -249 -318 0
54 -255 -291 0
54 -270 -276 0
54 -255 -312 0
54 -270 -297 0
54 -255 -333 0
54 -270 -318 0
54 -276 -312 0
54 -291 -297 0
54 -276 -333 0
54 -291 -318 0
54 -297 -333 0
54 -312 -318 0
55 -213 -250 0
55 -229 -234 0
55 -213 -271 0
55 -229 -255 0
55 -213 -292 0
55 -229 -276 0
55 -213 -313 0
55 -229 -297 0
55 -213 -334 0
55 -229 -318 0
55 -234 -271 0
55 -250 -255 0
55 -234 -292 0
55 -250 -276 0
55 -234 -313 0
55 -250 -297 0
55 -234 -334 0
55 -250 -318 0
55 -255 -292 0
55 -271 -276 0
55 -255 -313 0
55 -271 -297 0
55 -255 -334 0
55 -271 -318 0
55 -276 -313 0
55 -292 -297 0
55 -276 -334 0
55 -292 -318 0
55 -297 -334 0
55 -313 -318 0
56 -213 -251 0
56 -230 -234 0
56 -213 -272 0
56 -230 -255 0
56 -213 -293 0
56 -230 -276 0
56 -213 -314 0
56 -230 -297 0
56 -213 -335 0
56 -230 -318 0
56 -234 -272 0
56 -251 -255 0
56 -234 -293 0
56 -251 -276 0
56 -234 -314 0
56 -251 -297 0
56 -234 -335 0
56 -251 -318 0
56 -255 -293 0
56 -272 -276 0
56 -255 -314 0
56 -272 -297 0
56 -255 -335 0
56 -272 -318 0
56 -276 -314 0
56 -293 -297 0
56 -276 -335 0
56 -293 -318 0
56 -297 -335 0
56 -314 -318 0
57 -213 -252 0
57 -231 -234 0
57 -213 -273 0
57 -231 -255 0
57 -213 -294 0
57 -231 -276 0
57 -213 -315 0
57 -231 -297 0
57 -213 -336 0
57 -231 -318 0
57 -234 -273 0
57 -252 -255 0
57 -234 -294 0
57 -252 -276 0
57 -234 -315 0
57 -252 -297 0
57 -234 -336 0
57 -252 -318 0
57 -255 -294 0
57 -273 -276 0
57 -255 -315 0
57 -273 -297 0
57 -255 -336 0
57 -273 -318 0
57 -276 -315 0
57 -294 -297 0
57 -276 -336 0
57 -294 -318 0
57 -297 -336 0
57 -315 -318 0
58 -214 -236 0
58 -215 -235 0
58 -214 -257 0
58 -215 -256 0
58 -214 -278 0
58 -215 -277 0
58 -214 -299 0
58 -215 -298 0
58 -214 -320 0
58 -215 -319 0
58 -235 -257 0
58 -236 -256 0
58 -235 -278 0
58 -236 -277 0
58 -235 -299 0
58 -236 -298 0
58 -235 -320 0
58 -236 -319 0
58 -256 -278 0
58 -257 -277 0
58 -256 -299 0
58 -257 -298 0
58 -256 -320 0
58 -257 -319 0
58 -277 -299 0
58 -278 -298 0
58 -277 -320 0
58 -278 -319 0
58 -298 -320 0
58 -299 -319 0
59 -214 -237 0
59 -216 -235 0
59 -214 -258 0
59 -216 -256 0
59 -214 -279 0
59 -216 -277 0
59 -214 -300 0
59 -216 -298 0
59 -214 -321 0
59 -216 -319 0
59 -235 -258 0
59 -237 -256 0
59 -235 -279 0
59 -237 -277 0
59 -235 -300 0
59 -237 -298 0
59 -235 -321 0
59 -237 -319 0
59 -256 -279 0
59 -258 -277 0
59 -256 -300 0
59 -258 -298 0
59 -256 -321 0
59 -258 -319 0
59 -277 -300 0
59 -279 -298 0
59 -277 -321 0
59 -279 -319 0
59 -298 -321 0
59 -300 -319 0
60 -214 -238 0
60 -217 -235 0
60 -214 -259 0
60 -217 -256 0
60 -214 -280 0
60 -217 -277 0
60 -214 -301 0
60 -217 -298 0
60 -214 -322 0
60 -217 -319 0
60 -235 -259 0
60 -238 -256 0
60 -235 -280 0
60 -238 -277 0
60 -235 -301 0
60 -238 -298 0
60 -235 -322 0
60 -238 -319 0
60 -256 -280 0
60 -259 -277 0
60 -256 -301 0
60 -259 -298 0
60 -256 -322 0
60 -259 -319 0
60 -277 -301 0
60 -280 -298 0
60 -277 -322 0
60 -280 -319 0
60 -298 -322 0
60 -301 -319 0
61 -214 -239 0
61 -218 -235 0
61 -214 -260 0
61 -218 -256 0
61 -214 -281 0
61 -218 -277 0
61 -214 -302 0
61 -218 -298 0
61 -214 -323 0
61 -218 -319 0
61 -235 -260 0
61 -239 -256 0
61 -235 -281 0
61 -239 -277 0
61 -235 -302 0
61 -239 -298 0
61 -235 -323 0
61 -239 -319 0
61 -256 -281 0
61 -260 -277 0
61 -256 -302 0
61 -260 -298 0
61 -256 -323 0
61 -260 -319 0
61 -277 -302 0
61 -281 -298 0
61 -277 -323 0
61 -281 -319 0
61 -298 -323 0
61 -302 -319 0
62 -214 -240 0
62 -219 -235 0
62 -214 -261 0
62 -219 -256 0
62 -214 -282 0
62 -219 -277 0
62 -214 -303 0
62 -219 -298 0
62 -214 -324 0
62 -219 -319 0
62 -235 -261 0
62 -240 -256 0
62 -235 -282 0
62 -240 -277 0
62 -235 -303 0
62 -240 -298 0
62 -235 -324 0
62 -240 -319 0
62 -256 -282 0
62 -261 -277 0
62 -256 -303 0
62 -261 -298 0
62 -256 -324 0
62 -261 -319 0
62 -277 -303 0
62 -282 -298 0
62 -277 -324 0
62 -282 -319 0
62 -298 -324 0
62 -303 -319 0
63 -214 -241 0
63 -220 -235 0
63 -214 -262 0
63 -220 -256 0
63 -214 -283 0
63 -220 -277 0
63 -214 -304 0
63 -220 -298 0
63 -214 -325 0
63 -220 -319 0
63 -235 -262 0
63 -241 -256 0
63 -235 -283 0
63 -241 -277 0
63 -235 -304 0
63 -241 -298 0
63 -235 -325 0
63 -241 -319 0
63 -256 -283 0
63 -262 -277 0
63 -256 -304 0
63 -262 -298 0
63 -256 -325 0
63 -262 -319 0
63 -277 -304 0
63 -283 -298 0
63 -277 -325 0
63 -283 -319 0
63 -298 -325 0
63 -304 -319 0
64 -214 -242 0
64 -221 -235 0
64 -214 -263 0
64 -221 -256 0
64 -214 -284 0
64 -221 -277 0
64 -214 -305 0
64 -221 -298 0
64 -214 -326 0
64 -221 -319 0
64 -235 -263 0
64 -242 -256 0
64 -235 -284 0
64 -242 -277 0
64 -235 -305 0
64 -242 -298 0
64 -235 -326 0
64 -242 -319 0
64 -256 -284 0
64 -263 -277 0
64 -256 -305 0
64 -263 -298 0
64 -256 -326 0
64 -263 -319 0
64 -277 -305 0
64 -284 -298 0
64 -277 -326 0
64 -284 -319 0
64 -298 -326 0
64 -305 -319 0
65 -214 -243 0
65 -222 -235 0
65 -214 -264 0
65 -222 -256 0
65 -214 -285 0
65 -222 -277 0
65 -214 -306 0
65 -222 -298 0
65 -214 -327 0
65 -222 -319 0
65 -235 -264 0
65 -243 -256 0
65 -235 -285 0
65 -243 -277 0
65 -235 -306 0
65 -243 -298 0
65 -235 -327 0
65 -243 -319 0
65 -256 -285 0
65 -264 -277 0
65 -256 -306 0
65 -264 -298 0
65 -256 -327 0
65 -264 -319 0
65 -277 -306 0
65 -285 -298 0
65 -277 -327 0
65 -285 -319 0
65 -298 -327 0
65 -306 -319 0
66 -214 -244 0
66 -223 -235 0
66 -214 -265 0
66 -223 -256 0
66 -214 -286 0
66 -223 -277 0
66 -214 -307 0
66 -223 -298 0
66 -214 -328 0
66 -223 -319 0
66 -235 -265 0
66 -244 -256 0
66 -235 -286 0
66 -244 -277 0
66 -235 -307 0
66 -244 -298 0
66 -235 -328 0
66 -244 -319 0
66 -256 -286 0
66 -265 -277 0
66 -256 -307 0
66 -265 -298 0
66 -256 -328 0
66 -265 -319 0
66 -277 -307 0
66 -286 -298 0
66 -277 -328 0
66 -286 -319 0
66 -298 -328 0
66 -307 -319 0
67 -214 -245 0
67 -224 -235 0
67 -214 -266 0
67 -224 -256 0
67 -214 -287 0
67 -224 -277 0
67 -214 -308 0
67 -224 -298 0
67 -214 -329 0
67 -224 -319 0
67 -235 -266 0
67 -245 -256 0
67 -235 -287 0
67 -245 -277 0
67 -235 -308 0
67 -245 -298 0
67 -235 -329 0
67 -245 -319 0
67 -256 -287 0
67 -266 -277 0
67 -256 -308 0
67 -266 -298 0
67 -256 -329 0
67 -266 -319 0
67 -277 -308 0
67 -287 -298 0
67 -277 -329 0
67 -287 -319 0
67 -298 -329 0
67 -308 -319 0
68 -214 -246 0
68 -225 -235 0
68 -214 -267 0
68 -225 -256 0
68 -214 -288 0
68 -225 -277 0
68 -214 -309 0
68 -225 -298 0
68 -214 -330 0
68 -225 -319 0
68 -235 -267 0
68 -246 -256 0
68 -235 -288 0
68 -246 -277 0
68 -235 -309 0
68 -246 -298 0
68 -235 -330 0
68 -246 -319 0
68 -256 -288 0
68 -267 -277 0
68 -256 -309 0
68 -267 -298 0
68 -256 -330 0
68 -267 -319 0
68 -277 -309 0
68 -288 -298 0
68 -277 -330 0
68 -288 -319 0
68 -298 -330 0
68 -309 -319 0
69 -214 -247 0
69 -226 -235 0
69 -214 -268 0
69 -226 -256 0
69 -214 -289 0
69 -226 -277 0
69 -214 -310 0
69 -226 -298 0
69 -214 -331 0
69 -226 -319 0
69 -235 -268 0
69 -247 -256 0
69 -235 -289 0
69 -247 -277 0
69 -235 -310 0
69 -247 -298 0
69 -235 -331 0
69 -247 -319 0
69 -256 -289 0
69 -268 -277 0
69 -256 -310 0
69 -268 -298 0
69 -256 -331 0
69 -268 -319 0
69 -277 -310 0
69 -289 -298 0
69 -277 -331 0
69 -289 -319 0
69 -298 -331 0
69 -310 -319 0
70 -214 -248 0
70 -227 -235 0
70 -214 -269 0
70 -227 -256 0
70 -214 -290 0
70 -227 -277 0
70 -214 -311 0
70 -227 -298 0
70 -214 -332 0
70 -227 -319 0
70 -235 -269 0
70 -248 -256 0
70 -235 -290 0
70 -248 -277 0
70 -235 -311 0
70 -248 -298 0
70 -235 -332 0
70 -248 -319 0
70 -256 -290 0
70 -269 -277 0
70 -256 -311 0
70 -269 -298 0
70 -256 -332 0
70 -269 -319 0
70 -277 -311 0
70 -290 -298 0
70 -277 -332 0
70 -290 -319 0
70 -298 -332 0
70 -311 -319 0
71 -214 -249 0
71 -228 -235 0
71 -214 -270 0
71 -228 -256 0
71 -214 -291 0
71 -228 -277 0
71 -214 -312 0
71 -228 -298 0
71 -214 -333 0
71 -228 -319 0
71 -235 -270 0
71 -249 -256 0
71 -235 -291 0
71 -249 -277 0
71 -235 -312 0
71 -249 -298 0
71 -235 -333 0
71 -249 -319 0
71 -256 -291 0
71 -270 -277 0
71 -256 -312 0
71 -270 -298 0
71 -256 -333 0
71 -270 -319 0
71 -277 -312 0
71 -291 -298 0
71 -277 -333 0
71 -291 -319 0
71 -298 -333 0
71 -312 -319 0
72 -214 -250 0
72 -229 -235 0
72 -214 -271 0
72 -229 -256 0
72 -214 -292 0
72 -229 -277 0
72 -214 -313 0
72 -229 -298 0
72 -214 -334 0
72 -229 -319 0
72 -235 -271 0
72 -250 -256 0
72 -235 -292 0
72 -250 -277 0
72 -235 -313 0
72 -250 -298 0
72 -235 -334 0
72 -250 -319 0
72 -256 -292 0
72 -271 -277 0
72 -256 -313 0
72 -271 -298 0
72 -256 -334 0
72 -271 -319 0
72 -277 -313 0
72 -292 -298 0
72 -277 -334 0
72 -292 -319 0
72 -298 -334 0
72 -313 -319 0
73 -214 -251 0
73 -230 -235 0
73 -214 -272 0
73 -230 -256 0
73 -214 -293 0
73 -230 -277 0
73 -214 -314 0
73 -230 -298 0
73 -214 -335 0
73 -230 -319 0
73 -235 -272 0
73 -251 -256 0
73 -235 -293 0
73 -251 -277 0
73 -235 -314 0
73 -251 -298 0
73 -235 -335 0
73 -251 -319 0
73 -256 -293 0
73 -272 -277 0
73 -256 -314 0
73 -272 -298 0
73 -256 -335 0
73 -272 -319 0
73 -277 -314 0
73 -293 -298 0
73 -277 -335 0
73 -293 -319 0
73 -298 -335 0
73 -314 -319 0
74 -214 -252 0
74 -231 -235 0
74 -214 -273 0
74 -231 -256 0
74 -214 -294 0
74 -231 -277 0
74 -214 -315 0
74 -231 -298 0
74 -214 -336 0
74 -231 -319 0
74 -235 -273 0
74 -252 -256 0
74 -235 -294 0
74 -252 -277 0
74 -235 -315 0
74 -252 -298 0
74 -235 -336 0
74 -252 -319 0
74 -256 -294 0
74 -273 -277 0
74 -256 -315 0
74 -273 -298 0
74 -256 -336 0
74 -273 -319 0
74 -277 -315 0
74 -294 -298 0
74 -277 -336 0
74 -294 -319 0
74 -298 -336 0
74 -315 -319 0
75 -215 -237 0
75 -216 -236 0
75 -215 -258 0
75 -216 -257 0
75 -215 -279 0
75 -216 -278 0
75 -215 -300 0
75 -216 -299 0
75 -215 -321 0
75 -216 -320 0
75 -236 -258 0
75 -237 -257 0
75 -236 -279 0
75 -237 -278 0
75 -236 -300 0
75 -237 -299 0
75 -236 -321 0
75 -237 -320 0
75 -257 -279 0
75 -258 -278 0
75 -257 -300 0
75 -258 -299 0
75 -257 -321 0
75 -258 -320 0
75 -278 -300 0
75 -279 -299 0
75 -278 -321 0
75 -279 -320 0
75 -299 -321 0
75 -300 -320 0
76 -215 -238 0
76 -217 -236 0
76 -215 -259 0
76 -217 -257 0
76 -215 -280 0
76 -217 -278 0
76 -215 -301 0
76 -217 -299 0
76 -215 -322 0
76 -217 -320 0
76 -236 -259 0
76 -238 -257 0
76 -236 -280 0
76 -238 -278 0
76 -236 -301 0
76 -238 -299 0
76 -236 -322 0
76 -238 -320 0
76 -257 -280 0
76 -259 -278 0
76 -257 -301 0
76 -259 -299 0
76 -257 -322 0
76 -259 -320 0
76 -278 -301 0
76 -280 -299 0
76 -278 -322 0
76 -280 -320 0
76 -299 -322 0
76 -301 -320 0
77 -215 -239 0
77 -218 -236 0
77 -215 -260 0
77 -218 -257 0
77 -215 -281 0
77 -218 -278 0
77 -215 -302 0
77 -218 -299 0
77 -215 -323 0
77 -218 -320 0
77 -236 -260 0
77 -239 -257 0
77 -236 -281 0
77 -239 -278 0
77 -236 -302 0
77 -239 -299 0
77 -236 -323 0
77 -239 -320 0
77 -257 -281 0
77 -260 -278 0
77 -257 -302 0
77 -260 -299 0
77 -257 -323 0
77 -260 -320 0
77 -278 -302 0
77 -281 -299 0
77 -278 -323 0
77 -281 -320 0
77 -299 -323 0
77 -302 -320 0
78 -215 -240 0
78 -219 -236 0
78 -215 -261 0
78 -219 -257 0
78 -215 -282 0
78 -219 -278 0
78 -215 -303 0
78 -219 -299 0
78 -215 -324 0
78 -219 -320 0
78 -236 -261 0
78 -240 -257 0
78 -236 -282 0
78 -240 -278 0
78 -236 -303 0
78 -240 -299 0
78 -236 -324 0
78 -240 -320 0
78 -257 -282 0
78 -261 -278 0
78 -257 -303 0
78 -261 -299 0
78 -257 -324 0
78 -261 -320 0
78 -278 -303 0
78 -282 -299 0
78 -278 -324 0
78 -282 -320 0
78 -299 -324 0
78 -303 -320 0
79 -215 -241 0
79 -220 -236 0
79 -215 -262 0
79 -220 -257 0
79 -215 -283 0
79 -220 -278 0
79 -215 -304 0
79 -220 -299 0
79 -215 -325 0
79 -220 -320 0
79 -236 -262 0
79 -241 -257 0
79 -236 -283 0
79 -241 -278 0
79 -236 -304 0
79 -241 -299 0
79 -236 -325 0
79 -241 -320 0
79 -257 -283 0
79 -262 -278 0
79 -257 -304 0
79 -262 -299 0
79 -257 -325 0
79 -262 -320 0
79 -278 -304 0
79 -283 -299 0
79 -278 -325 0
79 -283 -320 0
79 -299 -325 0
79 -304 -320 0
80 -215 -242 0
80 -221 -236 0
80 -215 -263 0
80 -221 -257 0
80 -215 -284 0
80 -221 -278 0
80 -215 -305 0
80 -221 -299 0
80 -215 -326 0
80 -221 -320 0
80 -236 -263 0
80 -242 -257 0
80 -236 -284 0
80 -242 -278 0
80 -236 -305 0
80 -242 -299 0
80 -236 -326 0
80 -242 -320 0
80 -257 -284 0
80 -263 -278 0
80 -257 -305 0
80 -263 -299 0
80 -257 -326 0
80 -263 -320 0
80 -278 -305 0
80 -284 -299 0
80 -278 -326 0
80 -284 -320 0
80 -299 -326 0
80 -305 -320 0
81 -215 -243 0
81 -222 -236 0
81 -215 -264 0
81 -222 -257 0
81 -215 -285 0
81 -222 -278 0
81 -215 -306 0
81 -222 -299 0
81 -215 -327 0
81 -222 -320 0
81 -236 -264 0
81 -243 -257 0
81 -236 -285 0
81 -243 -278 0
81 -236 -306 0
81 -243 -299 0
81 -236 -327 0
81 -243 -320 0
81 -257 -285 0
81 -264 -278 0
81 -257 -306 0
81 -264 -299 0
81 -257 -327 0
81 -264 -320 0
81 -278 -306 0
81 -285 -299 0
81 -278 -327 0
81 -285 -320 0
81 -299 -327 0
81 -306 -320 0
82 -215 -244 0
82 -223 -236 0
82 -215 -265 0
82 -223 -257 0
82 -215 -286 0
82 -223 -278 0
82 -215 -307 0
82 -223 -299 0
82 -215 -328 0
82 -223 -320 0
82 -236 -265 0
82 -244 -257 0
82 -236 -286 0
82 -244 -278 0
82 -236 -307 0
82 -244 -299 0
82 -236 -328 0
82 -244 -320 0
82 -257 -286 0
82 -265 -278 0
82 -257 -307 0
82 -265 -299 0
82 -257 -328 0
82 -265 -320 0
82 -278 -307 0
82 -286 -299 0
82 -278 -328 0
82 -286 -320 0
82 -299 -328 0
82 -307 -320 0
83 -215 -245 0
83 -224 -236 0
83 -215 -266 0
83 -224 -257 0
83 -215 -287 0
83 -224 -278 0
83 -215 -308 0
83 -224 -299 0
83 -215 -329 0
83 -224 -320 0
83 -236 -266 0
83 -245 -257 0
83 -236 -287 0
83 -245 -278 0
83 -236 -308 0
83 -245 -299 0
83 -236 -329 0
83 -245 -320 0
83 -257 -287 0
83 -266 -278 0
83 -257 -308 0
83 -266 -299 0
83 -257 -329 0
83 -266 -320 0
83 -278 -308 0
83 -287 -299 0
83 -278 -329 0
83 -287 -320 0
83 -299 -329 0
83 -308 -320 0
84 -215 -246 0
84 -225 -236 0
84 -215 -267 0
84 -225 -257 0
84 -215 -288 0
84 -225 -278 0
84 -215 -309 0
84 -225 -299 0
84 -215 -330 0
84 -225 -320 0
84 -236 -267 0
84 -246 -257 0
84 -236 -288 0
84 -246 -278 0
84 -236 -309 0
84 -246 -299 0
84 -236 -330 0
84 -246 -320 0
84 -257 -288 0
84 -267 -278 0
84 -257 -309 0
84 -267 -299 0
84 -257 -330 0
84 -267 -320 0
84 -278 -309 0
84 -288 -299 0
84 -278 -330 0
84 -288 -320 0
84 -299 -330 0
84 -309 -320 0
85 -215 -247 0
85 -226 -236 0
85 -215 -268 0
85 -226 -257 0
85 -215 -289 0
85 -226 -278 0
85 -215 -310 0
85 -226 -299 0
85 -215 -331 0
85 -226 -320 0
85 -236 -268 0
85 -247 -257 0
85 -236 -289 0
85 -247 -278 0
85 -236 -310 0
85 -247 -299 0
85 -236 -331 0
85 -247 -320 0
85 -257 -289 0
85 -268 -278 0
85 -257 -310 0
85 -268 -299 0
85 -257 -331 0
85 -268 -320 0
85 -278 -310 0
85 -289 -299 0
85 -278 -331 0
85 -289 -320 0
85 -299 -331 0
85 -310 -320 0
86 -215 -248 0
86 -227 -236 0
86 -215 -269 0
86 -227 -257 0
86 -215 -290 0
86 -227 -278 0
86 -215 -311 0
86 -227 -299 0
86 -215 -332 0
86 -227 -320 0
86 -236 -269 0
86 -248 -257 0
86 -236 -290 0
86 -248 -278 0
86 -236 -311 0
86 -248 -299 0
86 -236 -332 0
86 -248 -320 0
86 -257 -290 0
86 -269 -278 0
86 -257 -311 0
86 -269 -299 0
86 -257 -332 0
86 -269 -320 0
86 -278 -311 0
86 -290 -299 0
86 -278 -332 0
86 -290 -320 0
86 -299 -332 0
86 -311 -320 0
87 -215 -249 0
87 -228 -236 0
87 -215 -270 0
87 -228 -257 0
87 -215 -291 0
87 -228 -278 0
87 -215 -312 0
87 -228 -299 0
87 -215 -333 0
87 -228 -320 0
87 -236 -270 0
87 -249 -257 0
87 -236 -291 0
87 -249 -278 0
87 -236 -312 0
87 -249 -299 0
87 -236 -333 0
87 -249 -320 0
87 -257 -291 0
87 -270 -278 0
87 -257 -312 0
87 -270 -299 0
87 -257 -333 0
87 -270 -320 0
87 -278 -312 0
87 -291 -299 0
87 -278 -333 0
87 -291 -320 0
87 -299 -333 0
87 -312 -320 0
88 -215 -250 0
88 -229 -236 0
88 -215 -271 0
88 -229 -257 0
88 -215 -292 0
88 -229 -278 0
88 -215 -313 0
88 -229 -299 0
88 -215 -334 0
88 -229 -320 0
88 -236 -271 0
88 -250 -257 0
88 -236 -292 0
88 -250 -278 0
88 -236 -313 0
88 -250 -299 0
88 -236 -334 0
88 -250 -320 0
88 -257 -292 0
88 -271 -278 0
88 -257 -313 0
88 -271 -299 0
88 -257 -334 0
88 -271 -320 0
88 -278 -313 0
88 -292 -299 0
88 -278 -334 0
88 -292 -320 0
88 -299 -334 0
88 -313 -320 0
89 -215 -251 0
89 -230 -236 0
89 -215 -272 0
89 -230 -257 0
89 -215 -293 0
89 -230 -278 0
89 -215 -314 0
89 -230 -299 0
89 -215 -335 0
89 -230 -320 0
89 -236 -272 0
89 -251 -257 0
89 -236 -293 0
89 -251 -278 0
89 -236 -314 0
89 -251 -299 0
89 -236 -335 0
89 -251 -320 0
89 -257 -293 0
89 -272 -278 0
89 -257 -314 0
89 -272 -299 0
89 -257 -335 0
89 -272 -320 0
89 -278 -314 0
89 -293 -299 0
89 -278 -335 0
89 -293 -320 0
89 -299 -335 0
89 -314 -320 0
90 -215 -252 0
90 -231 -236 0
90 -215 -273 0
90 -231 -257 0
90 -215 -294 0
90 -231 -278 0
90 -215 -315 0
90 -231 -299 0
90 -215 -336 0
90 -231 -320 0
90 -236 -273 0
90 -252 -257 0
90 -236 -294 0
90 -252 -278 0
90 -236 -315 0
90 -252 -299 0
90 -236 -336 0
90 -252 -320 0
90 -257 -294 0
90 -273 -278 0
90 -257 -315 0
90 -273 -299 0
90 -257 -336 0
90 -273 -320 0
90 -278 -315 0
90 -294 -299 0
90 -278 -336 0
90 -294 -320 0
90 -299 -336 0
90 -315 -320 0
91 -216 -238 0
91 -217 -237 0
91 -216 -259 0
91 -217 -258 0
91 -216 -280 0
91 -217 -279 0
91 -216 -301 0
91 -217 -300 0
91 -216 -322 0
91 -217 -321 0
91 -237 -259 0
91 -238 -258 0
91 -237 -280 0
91 -238 -279 0
91 -237 -301 0
91 -238 -300 0
91 -237 -322 0
91 -238 -321 0
91 -258 -280 0
91 -259 -279 0
91 -258 -301 0
91 -259 -300 0
91 -258 -322 0
91 -259 -321 0
91 -279 -301 0
91 -280 -300 0
91 -279 -322 0
91 -280 -321 0
91 -300 -322 0
91 -301 -321 0
92 -216 -239 0
92 -218 -237 0
92 -216 -260 0
92 -218 -258 0
92 -216 -281 0
92 -218 -279 0
92 -216 -302 0
92 -218 -300 0
92 -216 -323 0
92 -218 -321 0
92 -237 -260 0
92 -239 -258 0
92 -237 -281 0
92 -239 -279 0
92 -237 -302 0
92 -239 -300 0
92 -237 -323 0
92 -239 -321 0
92 -258 -281 0
92 -260 -279 0
92 -258 -302 0
92 -260 -300 0
92 -258 -323 0
92 -260 -321 0
92 -279 -302 0
92 -281 -300 0
92 -279 -323 0
92 -281 -321 0
92 -300 -323 0
92 -302 -321 0
93 -216 -240 0
93 -219 -237 0
93 -216 -261 0
93 -219 -258 0
93 -216 -282 0
93 -219 -279 0
93 -216 -303 0
93 -219 -300 0
93 -216 -324 0
93 -219 -321 0
93 -237 -261 0
93 -240 -258 0
93 -237 -282 0
93 -240 -279 0
93 -237 -303 0
93 -240 -300 0
93 -237 -324 0
93 -240 -321 0
93 -258 -282 0
93 -261 -279 0
93 -258 -303 0
93 -261 -300 0
93 -258 -324 0
93 -261 -321 0
93 -279 -303 0
93 -282 -300 0
93 -279 -324 0
93 -282 -321 0
93 -300 -324 0
93 -303 -321 0
94 -216 -241 0
94 -220 -237 0
94 -216 -262 0
94 -220 -258 0
94 -216 -283 0
94 -220 -279 0
94 -216 -304 0
94 -220 -300 0
94 -216 -325 0
94 -220 -321 0
94 -237 -262 0
94 -241 -258 0
94 -237 -283 0
94 -241 -279 0
94 -237 -304 0
94 -241 -300 0
94 -237 -325 0
94 -241 -321 0
94 -258 -283 0
94 -262 -279 0
94 -258 -304 0
94 -262 -300 0
94 -258 -325 0
94 -262 -321 0
94 -279 -304 0
94 -283 -300 0
94 -279 -325 0
94 -283 -321 0
94 -300 -325 0
94 -304 -321 0
95 -216 -242 0
95 -221 -237 0
95 -216 -263 0
95 -221 -258 0
95 -216 -284 0
95 -221 -279 0
95 -216 -305 0
95 -221 -300 0
95 -216 -326 0
95 -221 -321 0
95 -237 -263 0
95 -242 -258 0
95 -237 -284 0
95 -242 -279 0
95 -237 -305 0
95 -242 -300 0
95 -237 -326 0
95 -242 -321 0
95 -258 -284 0
95 -263 -279 0
95 -258 -305 0
95 -263 -300 0
95 -258 -326 0
95 -263 -321 0
95 -279 -305 0
95 -284 -300 0
95 -279 -326 0
95 -284 -321 0
95 -300 -326 0
95 -305 -321 0
96 -216 -243 0
96 -222 -237 0
96 -216 -264 0
96 -222 -258 0
96 -216 -285 0
96 -222 -279 0
96 -216 -306 0
96 -222 -300 0
96 -216 -327 0
96 -222 -321 0
96 -237 -264 0
96 -243 -258 0
96 -237 -285 0
96 -243 -279 0
96 -237 -306 0
96 -243 -300 0
96 -237 -327 0
96 -243 -321 0
96 -258 -285 0
96 -264 -279 0
96 -258 -306 0
96 -264 -300 0
96 -258 -327 0
96 -264 -321 0
96 -279 -306 0
96 -285 -300 0
96 -279 -327 0
96 -285 -321 0
96 -300 -327 0
96 -306 -321 0
97 -216 -244 0
97 -223 -237 0
97 -216 -265 0
97 -223 -258 0
97 -216 -286 0
97 -223 -279 0
97 -216 -307 0
97 -223 -300 0
97 -216 -328 0
97 -223 -321 0
97 -237 -265 0
97 -244 -258 0
97 -237 -286 0
97 -244 -279 0
97 -237 -307 0
97 -244 -300 0
97 -237 -328 0
97 -244 -321 0
97 -258 -286 0
97 -265 -279 0
97 -258 -307 0
97 -265 -300 0
97 -258 -328 0
97 -265 -321 0
97 -279 -307 0
97 -286 -300 0
97 -279 -328 0
97 -286 -321 0
97 -300 -328 0
97 -307 -321 0
98 -216 -245 0
98 -224 -237 0
98 -216 -266 0
98 -224 -258 0
98 -216 -287 0
98 -224 -279 0
98 -216 -308 0
98 -224 -300 0
98 -216 -329 0
98 -224 -321 0
98 -237 -266 0
98 -245 -258 0
98 -237 -287 0
98 -245 -279 0
98 -237 -308 0
98 -245 -300 0
98 -237 -329 0
98 -245 -321 0
98 -258 -287 0
98 -266 -279 0
98 -258 -308 0
98 -266 -300 0
98 -258 -329 0
98 -266 -321 0
98 -279 -308 0
98 -287 -300 0
98 -279 -329 0
98 -287 -321 0
98 -300 -329 0
98 -308 -321 0
99 -216 -246 0
99 -225 -237 0
99 -216 -267 0
99 -225 -258 0
99 -216 -288 0
99 -225 -279 0
99 -216 -309 0
99 -225 -300 0
99 -216 -330 0
99 -225 -321 0
99 -237 -267 0
99 -246 -258 0
99 -237 -288 0
99 -246 -279 0
99 -237 -309 0
99 -246 -300 0
99 -237 -330 0
99 -246 -321 0
99 -258 -288 0
99 -267 -279 0
99 -258 -309 0
99 -267 -300 0
99 -258 -330 0
99 -267 -321 0
99 -279 -309 0
99 -288 -300 0
99 -279 -330 0
99 -288 -321 0
99 -300 -330 0
99 -309 -321 0
100 -216 -247 0
100 -226 -237 0
100 -216 -268 0
100 -226 -258 0
100 -216 -289 0
100 -226 -279 0
100 -216 -310 0
100 -226 -300 0
100 -216 -331 0
100 -226 -321 0
100 -237 -268 0
100 -247 -258 0
100 -237 -289 0
100 -247 -279 0
100 -237 -310 0
100 -247 -300 0
100 -237 -331 0
100 -247 -321 0
100 -258 -289 0
100 -268 -279 0
100 -258 -310 0
100 -268 -300 0
100 -258 -331 0
100 -268 -321 0
100 -279 -310 0
100 -289 -300 0
100 -279 -331 0
100 -289 -321 0
100 -300 -331 0
100 -310 -321 0
101 -216 -248 0
101 -227 -237 0
101 -216 -269 0
101 -227 -258 0
101 -216 -290 0
101 -227 -279 0
101 -216 -311 0
101 -227 -300 0
101 -216 -332 0
101 -227 -321 0
101 -237 -269 0
101 -248 -258 0
101 -237 -290 0
101 -248 -279 0
101 -237 -311 0
101 -248 -300 0
101 -237 -332 0
101 -248 -321 0
101 -258 -290 0
101 -269 -279 0
101 -258 -311 0
101 -269 -300 0
101 -258 -332 0
101 -269 -321 0
101 -279 -311 0
101 -290 -300 0
101 -279 -332 0
101 -290 -321 0
101 -300 -332 0
101 -311 -321 0
102 -216 -249 0
102 -228 -237 0
102 -216 -270 0
102 -228 -258 0
102 -216 -291 0
102 -228 -279 0
102 -216 -312 0
102 -228 -300 0
102 -216 -333 0
102 -228 -321 0
102 -237 -270 0
102 -249 -258 0
102 -237 -291 0
102 -249 -279 0
102 -237 -312 0
102 -249 -300 0
102 -237 -333 0
102 -249 -321 0
102 -258 -291 0
102 -270 -279 0
102 -258 -312 0
102 -270 -300 0
102 -258 -333 0
102 -270 -321 0
102 -279 -312 0
102 -291 -300 0
102 -279 -333 0
102 -291 -321 0
102 -300 -333 0
102 -312 -321 0
103 -216 -250 0
103 -229 -237 0
103 -216 -271 0
103 -229 -258 0
103 -216 -292 0
103 -229 -279 0
103 -216 -313 0
103 -229 -300 0
103 -216 -334 0
103 -229 -321 0
103 -237 -271 0
103 -250 -258 0
103 -237 -292 0
103 -250 -279 0
103 -237 -313 0
103 -250 -300 0
103 -237 -334 0
103 -250 -321 0
103 -258 -292 0
103 -271 -279 0
103 -258 -313 0
103 -271 -300 0
103 -258 -334 0
103 -271 -321 0
103 -279 -313 0
103 -292 -300 0
103 -279 -334 0
103 -292 -321 0
103 -300 -334 0
103 -313 -321 0
104 -216 -251 0
104 -230 -237 0
104 -216 -272 0
104 -230 -258 0
104 -216 -293 0
104 -230 -279 0
104 -216 -314 0
104 -230 -300 0
104 -216 -335 0
104 -230 -321 0
104 -237 -272 0
104 -251 -258 0
104 -237 -293 0
104 -251 -279 0
104 -237 -314 0
104 -251 -300 0
104 -237 -335 0
104 -251 -321 0
104 -258 -293 0
104 -272 -279 0
104 -258 -314 0
104 -272 -300 0
104 -258 -335 0
104 -272 -321 0
104 -279 -314 0
104 -293 -300 0
104 -279 -335 0
104 -293 -321 0
104 -300 -335 0
104 -314 -321 0
105 -216 -252 0
105 -231 -237 0
105 -216 -273 0
105 -231 -258 0
105 -216 -294 0
105 -231 -279 0
105 -216 -315 0
105 -231 -300 0
105 -216 -336 0
105 -231 -321 0
105 -237 -273 0
105 -252 -258 0
105 -237 -294 0
105 -252 -279 0
105 -237 -315 0
105 -252 -300 0
105 -237 -336 0
105 -252 -321 0
105 -258 -294 0
105 -273 -279 0
105 -258 -315 0
105 -273 -300 0
105 -258 -336 0
105 -273 -321 0
105 -279 -315 0
105 -294 -300 0
105 -279 -336 0
105 -294 -321 0
105 -300 -336 0
105 -315 -321 0
106 -217 -239 0
106 -218 -238 0
106 -217 -260 0
106 -218 -259 0
106 -217 -281 0
106 -218 -280 0
106 -217 -302 0
106 -218 -301 0
106 -217 -323 0
106 -218 -322 0
106 -238 -260 0
106 -239 -259 0
106 -238 -281 0
106 -239 -280 0
106 -238 -302 0
106 -239 -301 0
106 -238 -323 0
106 -239 -322 0
106 -259 -281 0
106 -260 -280 0
106 -259 -302 0
106 -260 -301 0
106 -259 -323 0
106 -260 -322 0
106 -280 -302 0
106 -281 -301 0
106 -280 -323 0
106 -281 -322 0
106 -301 -323 0
106 -302 -322 0
107 -217 -240 0
107 -219 -238 0
107 -217 -261 0
107 -219 -259 0
107 -217 -282 0
107 -219 -280 0
107 -217 -303 0
107 -219 -301 0
107 -217 -324 0
107 -219 -322 0
107 -238 -261 0
107 -240 -259 0
107 -238 -282 0
107 -240 -280 0
107 -238 -303 0
107 -240 -301 0
107 -238 -324 0
107 -240 -322 0
107 -259 -282 0
107 -261 -280 0
107 -259 -303 0
107 -261 -301 0
107 -259 -324 0
107 -261 -322 0
107 -280 -303 0
107 -282 -301 0
107 -280 -324 0
107 -282 -322 0
107 -301 -324 0
107 -303 -322 0
108 -217 -241 0
108 -220 -238 0
108 -217 -262 0
108 -220 -259 0
108 -217 -283 0
108 -220 -280 0
108 -217 -304 0
108 -220 -301 0
108 -217 -325 0
108 -220 -322 0
108 -238 -262 0
108 -241 -259 0
108 -238 -283 0
108 -241 -280 0
108 -238 -304 0
108 -241 -301 0
108 -238 -325 0
108 -241 -322 0
108 -259 -283 0
108 -262 -280 0
108 -259 -304 0
108 -262 -301 0
108 -259 -325 0
108 -262 -322 0
108 -280 -304 0
108 -283 -301 0
108 -280 -325 0
108 -283 -322 0
108 -301 -325 0
108 -304 -322 0
109 -217 -242 0
109 -221 -238 0
109 -217 -263 0
109 -221 -259 0
109 -217 -284 0
109 -221 -280 0
109 -217 -305 0
109 -221 -301 0
109 -217 -326 0
109 -221 -322 0
109 -238 -263 0
109 -242 -259 0
109 -238 -284 0
109 -242 -280 0
109 -238 -305 0
109 -242 -301 0
109 -238 -326 0
109 -242 -322 0
109 -259 -284 0
109 -263 -280 0
109 -259 -305 0
109 -263 -301 0
109 -259 -326 0
109 -263 -322 0
109 -280 -305 0
109 -284 -301 0
109 -280 -326 0
109 -284 -322 0
109 -301 -326 0
109 -305 -322 0
110 -217 -243 0
110 -222 -238 0
110 -217 -264 0
110 -222 -259 0
110 -217 -285 0
110 -222 -280 0
110 -217 -306 0
110 -222 -301 0
110 -217 -327 0
110 -222 -322 0
110 -238 -264 0
110 -243 -259 0
110 -238 -285 0
110 -243 -280 0
110 -238 -306 0
110 -243 -301 0
110 -238 -327 0
110 -243 -322 0
110 -259 -285 0
110 -264 -280 0
110 -259 -306 0
110 -264 -301 0
110 -259 -327 0
110 -264 -322 0
110 -280 -306 0
110 -285 -301 0
110 -280 -327 0
110 -285 -322 0
110 -301 -327 0
110 -306 -322 0
111 -217 -244 0
111 -223 -238 0
111 -217 -265 0
111 -223 -259 0
111 -217 -286 0
111 -223 -280 0
111 -217 -307 0
111 -223 -301 0
111 -217 -328 0
111 -223 -322 0
111 -238 -265 0
111 -244 -259 0
111 -238 -286 0
111 -244 -280 0
111 -238 -307 0
111 -244 -301 0
111 -238 -328 0
111 -244 -322 0
111 -259 -286 0
111 -265 -280 0
111 -259 -307 0
111 -265 -301 0
111 -259 -328 0
111 -265 -322 0
111 -280 -307 0
111 -286 -301 0
111 -280 -328 0
111 -286 -322 0
111 -301 -328 0
111 -307 -322 0
112 -217 -245 0
112 -224 -238 0
112 -217 -266 0
112 -224 -259 0
112 -217 -287 0
112 -224 -280 0
112 -217 -308 0
112 -224 -301 0
112 -217 -329 0
112 -224 -322 0
112 -238 -266 0
112 -245 -259 0
112 -238 -287 0
112 -245 -280 0
112 -238 -308 0
112 -245 -301 0
112 -238 -329 0
112 -245 -322 0
112 -259 -287 0
112 -266 -280 0
112 -259 -308 0
112 -266 -301 0
112 -259 -329 0
112 -266 -322 0
112 -280 -308 0
112 -287 -301 0
112 -280 -329 0
112 -287 -322 0
112 -301 -329 0
112 -308 -322 0
113 -217 -246 0
113 -225 -238 0
113 -217 -267 0
113 -225 -259 0
113 -217 -288 0
113 -225 -280 0
113 -217 -309 0
113 -225 -301 0
113 -217 -330 0
113 -225 -322 0
113 -238 -267 0
113 -246 -259 0
113 -238 -288 0
113 -246 -280 0
113 -238 -309 0
113 -246 -301 0
113 -238 -330 0
113 -246 -322 0
113 -259 -288 0
113 -267 -280 0
113 -259 -309 0
113 -267 -301 0
113 -259 -330 0
113 -267 -322 0
113 -280 -309 0
113 -288 -301 0
113 -280 -330 0
113 -288 -322 0
113 -301 -330 0
113 -309 -322 0
114 -217 -247 0
114 -226 -238 0
114 -217 -268 0
114 -226 -259 0
114 -217 -289 0
114 -226 -280 0
114 -217 -310 0
114 -226 -301 0
114 -217 -331 0
114 -226 -322 0
114 -238 -268 0
114 -247 -259 0
114 -238 -289 0
114 -247 -280 0
114 -238 -310 0
114 -247 -301 0
114 -238 -331 0
114 -247 -322 0
114 -259 -289 0
114 -268 -280 0
114 -259 -310 0
114 -268 -301 0
114 -259 -331 0
114 -268 -322 0
114 -280 -310 0
114 -289 -301 0
114 -280 -331 0
114 -289 -322 0
114 -301 -331 0
114 -310 -322 0
115 -217 -248 0
115 -227 -238 0
115 -217 -269 0
115 -227 -259 0
115 -217 -290 0
115 -227 -280 0
115 -217 -311 0
115 -227 -301 0
115 -217 -332 0
115 -227 -322 0
115 -238 -269 0
115 -248 -259 0
115 -238 -290 0
115 -248 -280 0
115 -238 -311 0
115 -248 -301 0
115 -238 -332 0
115 -248 -322 0
115 -259 -290 0
115 -269 -280 0
115 -259 -311 0
115 -269 -301 0
115 -259 -332 0
115 -269 -322 0
115 -280 -311 0
115 -290 -301 0
115 -280 -332 0
115 -290 -322 0
115 -301 -332 0
115 -311 -322 0
116 -217 -249 0
116 -228 -238 0
116 -217 -270 0
116 -228 -259 0
116 -217 -291 0
116 -228 -280 0
116 -217 -312 0
116 -228 -301 0
116 -217 -333 0
116 -228 -322 0
116 -238 -270 0
116 -249 -259 0
116 -238 -291 0
116 -249 -280 0
116 -238 -312 0
116 -249 -301 0
116 -238 -333 0
116 -249 -322 0
116 -259 -291 0
116 -270 -280 0
116 -259 -312 0
116 -270 -301 0
116 -259 -333 0
116 -270 -322 0
116 -280 -312 0
116 -291 -301 0
116 -280 -333 0
116 -291 -322 0
116 -301 -333 0
116 -312 -322 0
117 -217 -250 0
117 -229 -238 0
117 -217 -271 0
117 -229 -259 0
117 -217 -292 0
117 -229 -280 0
117 -217 -313 0
117 -229 -301 0
117 -217 -334 0
117 -229 -322 0
117 -238 -271 0
117 -250 -259 0
117 -238 -292 0
117 -250 -280 0
117 -238 -313 0
117 -250 -301 0
117 -238 -334 0
117 -250 -322 0
117 -259 -292 0
117 -271 -280 0
117 -259 -313 0
117 -271 -301 0
117 -259 -334 0
117 -271 -322 0
117 -280 -313 0
117 -292 -301 0
117 -280 -334 0
117 -292 -322 0
117 -301 -334 0
117 -313 -322 0
118 -217 -251 0
118 -230 -238 0
118 -217 -272 0
118 -230 -259 0
118 -217 -293 0
118 -230 -280 0
118 -217 -314 0
118 -230 -301 0
118 -217 -335 0
118 -230 -322 0
118 -238 -272 0
118 -251 -259 0
118 -238 -293 0
118 -251 -280 0
118 -238 -314 0
118 -251 -301 0
118 -238 -335 0
118 -251 -322 0
118 -259 -293 0
118 -272 -280 0
118 -259 -314 0
118 -272 -301 0
118 -259 -335 0
118 -272 -322 0
118 -280 -314 0
118 -293 -301 0
118 -280 -335 0
118 -293 -322 0
118 -301 -335 0
118 -314 -322 0
119 -217 -252 0
119 -231 -238 0
119 -217 -273 0
119 -231 -259 0
119 -217 -294 0
119 -231 -280 0
119 -217 -315 0
119 -231 -301 0
119 -217 -336 0
119 -231 -322 0
119 -238 -273 0
119 -252 -259 0
119 -238 -294 0
119 -252 -280 0
119 -238 -315 0
119 -252 -301 0
119 -238 -336 0
119 -252 -322 0
119 -259 -294 0
119 -273 -280 0
119 -259 -315 0
119 -273 -301 0
119 -259 -336 0
119 -273 -322 0
119 -280 -315 0
119 -294 -301 0
119 -280 -336 0
119 -294 -322 0
119 -301 -336 0
119 -315 -322 0
120 -218 -240 0
120 -219 -239 0
120 -218 -261 0
120 -219 -260 0
120 -218 -282 0
120 -219 -281 0
120 -218 -303 0
120 -219 -302 0
120 -218 -324 0
120 -219 -323 0
120 -239 -261 0
120 -240 -260 0
120 -239 -282 0
120 -240 -281 0
120 -239 -303 0
120 -240 -302 0
120 -239 -324 0
120 -240 -323 0
120 -260 -282 0
120 -261 -281 0
120 -260 -303 0
120 -261 -302 0
120 -260 -324 0
120 -261 -323 0
120 -281 -303 0
120 -282 -302 0
120 -281 -324 0
120 -282 -323 0
120 -302 -324 0
120 -303 -323 0
121 -218 -241 0
121 -220 -239 0
121 -218 -262 0
121 -220 -260 0
121 -218 -283 0
121 -220 -281 0
121 -218 -304 0
121 -220 -302 0
121 -218 -325 0
121 -220 -323 0
121 -239 -262 0
121 -241 -260 0
121 -239 -283 0
121 -241 -281 0
121 -239 -304 0
121 -241 -302 0
121 -239 -325 0
121 -241 -323 0
121 -260 -283 0
121 -262 -281 0
121 -260 -304 0
121 -262 -302 0
121 -260 -325 0
121 -262 -323 0
121 -281 -304 0
121 -283 -302 0
121 -281 -325 0
121 -283 -323 0
121 -302 -325 0
121 -304 -323 0
122 -218 -242 0
122 -221 -239 0
122 -218 -263 0
122 -221 -260 0
122 -218 -284 0
122 -221 -281 0
122 -218 -305 0
122 -221 -302 0
122 -218 -326 0
122 -221 -323 0
122 -239 -263 0
122 -242 -260 0
122 -239 -284 0
122 -242 -281 0
122 -239 -305 0
122 -242 -302 0
122 -239 -326 0
122 -242 -323 0
122 -260 -284 0
122 -263 -281 0
122 -260 -305 0
122 -263 -302 0
122 -260 -326 0
122 -263 -323 0
122 -281 -305 0
122 -284 -302 0
122 -281 -326 0
122 -284 -323 0
122 -302 -326 0
122 -305 -323 0
123 -218 -243 0
123 -222 -239 0
123 -218 -264 0
123 -222 -260 0
123 -218 -285 0
123 -222 -281 0
123 -218 -306 0
123 -222 -302 0
123 -218 -327 0
123 -222 -323 0
123 -239 -264 0
123 -243 -260 0
123 -239 -285 0
123 -243 -281 0
123 -239 -306 0
123 -243 -302 0
123 -239 -327 0
123 -243 -323 0
123 -260 -285 0
123 -264 -281 0
123 -260 -306 0
123 -264 -302 0
123 -260 -327 0
123 -264 -323 0
123 -281 -306 0
123 -285 -302 0
123 -281 -327 0
123 -285 -323 0
123 -302 -327 0
123 -306 -323 0
124 -218 -244 0
124 -223 -239 0
124 -218 -265 0
124 -223 -260 0
124 -218 -286 0
124 -223 -281 0
124 -218 -307 0
124 -223 -302 0
124 -218 -328 0
124 -223 -323 0
124 -239 -265 0
124 -244 -260 0
124 -239 -286 0
124 -244 -281 0
124 -239 -307 0
124 -244 -302 0
124 -239 -328 0
124 -244 -323 0
124 -260 -286 0
124 -265 -281 0
124 -260 -307 0
124 -265 -302 0
124 -260 -328 0
124 -265 -323 0
124 -281 -307 0
124 -286 -302 0
124 -281 -328 0
124 -286 -323 0
124 -302 -328 0
124 -307 -323 0
125 -218 -245 0
125 -224 -239 0
125 -218 -266 0
125 -224 -260 0
125 -218 -287 0
125 -224 -281 0
125 -218 -308 0
125 -224 -302 0
125 -218 -329 0
125 -224 -323 0
125 -239 -266 0
125 -245 -260 0
125 -239 -287 0
125 -245 -281 0
125 -239 -308 0
125 -245 -302 0
125 -239 -329 0
125 -245 -323 0
125 -260 -287 0
125 -266 -281 0
125 -260 -308 0
125 -266 -302 0
125 -260 -329 0
125 -266 -323 0
125 -281 -308 0
125 -287 -302 0
125 -281 -329 0
125 -287 -323 0
125 -302 -329 0
125 -308 -323 0
126 -218 -246 0
126 -225 -239 0
126 -218 -267 0
126 -225 -260 0
126 -218 -288 0
126 -225 -281 0
126 -218 -309 0
126 -225 -302 0
126 -218 -330 0
126 -225 -323 0
126 -239 -267 0
126 -246 -260 0
126 -239 -288 0
126 -246 -281 0
126 -239 -309 0
126 -246 -302 0
126 -239 -330 0
126 -246 -323 0
126 -260 -288 0
126 -267 -281 0
126 -260 -309 0
126 -267 -302 0
126 -260 -330 0
126 -267 -323 0
126 -281 -309 0
126 -288 -302 0
126 -281 -330 0
126 -288 -323 0
126 -302 -330 0
126 -309 -323 0
127 -218 -247 0
127 -226 -239 0
127 -218 -268 0
127 -226 -260 0
127 -218 -289 0
127 -226 -281 0
127 -218 -310 0
127 -226 -302 0
127 -218 -331 0
127 -226 -323 0
127 -239 -268 0
127 -247 -260 0
127 -239 -289 0
127 -247 -281 0
127 -239 -310 0
127 -247 -302 0
127 -239 -331 0
127 -247 -323 0
127 -260 -289 0
127 -268 -281 0
127 -260 -310 0
127 -268 -302 0
127 -260 -331 0
127 -268 -323 0
127 -281 -310 0
127 -289 -302 0
127 -281 -331 0
127 -289 -323 0
127 -302 -331 0
127 -310 -323 0
128 -218 -248 0
128 -227 -239 0
128 -218 -269 0
128 -227 -260 0
128 -218 -290 0
128 -227 -281 0
128 -218 -311 0
128 -227 -302 0
128 -218 -332 0
128 -227 -323 0
128 -239 -269 0
128 -248 -260 0
128 -239 -290 0
128 -248 -281 0
128 -239 -311 0
128 -248 -302 0
128 -239 -332 0
128 -248 -323 0
128 -260 -290 0
128 -269 -281 0
128 -260 -311 0
128 -269 -302 0
128 -260 -332 0
128 -269 -323 0
128 -281 -311 0
128 -290 -302 0
128 -281 -332 0
128 -290 -323 0
128 -302 -332 0
128 -311 -323 0
129 -218 -249 0
129 -228 -239 0
129 -218 -270 0
129 -228 -260 0
129 -218 -291 0
129 -228 -281 0
129 -218 -312 0
129 -228 -302 0
129 -218 -333 0
129 -228 -323 0
129 -239 -270 0
129 -249 -260 0
129 -239 -291 0
129 -249 -281 0
129 -239 -312 0
129 -249 -302 0
129 -239 -333 0
129 -249 -323 0
129 -260 -291 0
129 -270 -281 0
129 -260 -312 0
129 -270 -302 0
129 -260 -333 0
129 -270 -323 0
129 -281 -312 0
129 -291 -302 0
129 -281 -333 0
129 -291 -323 0
129 -302 -333 0
129 -312 -323 0
130 -218 -250 0
130 -229 -239 0
130 -218 -271 0
130 -229 -260 0
130 -218 -292 0
130 -229 -281 0
130 -218 -313 0
130 -229 -302 0
130 -218 -334 0
130 -229 -323 0
130 -239 -271 0
130 -250 -260 0
130 -239 -292 0
130 -250 -281 0
130 -239 -313 0
130 -250 -302 0
130 -239 -334 0
130 -250 -323 0
130 -260 -292 0
130 -271 -281 0
130 -260 -313 0
130 -271 -302 0
130 -260 -334 0
130 -271 -323 0
130 -281 -313 0
130 -292 -302 0
130 -281 -334 0
130 -292 -323 0
130 -302 -334 0
130 -313 -323 0
131 -218 -251 0
131 -230 -239 0
131 -218 -272 0
131 -230 -260 0
131 -218 -293 0
131 -230 -281 0
131 -218 -314 0
131 -230 -302 0
131 -218 -335 0
131 -230 -323 0
131 -239 -272 0
131 -251 -260 0
131 -239 -293 0
131 -251 -281 0
131 -239 -314 0
131 -251 -302 0
131 -239 -335 0
131 -251 -323 0
131 -260 -293 0
131 -272 -281 0
131 -260 -314 0
131 -272 -302 0
131 -260 -335 0
131 -272 -323 0
131 -281 -314 0
131 -293 -302 0
131 -281 -335 0
131 -293 -323 0
131 -302 -335 0
131 -314 -323 0
132 -218 -252 0
132 -231 -239 0
132 -218 -273 0
132 -231 -260 0
132 -218 -294 0
132 -231 -281 0
132 -218 -315 0
132 -231 -302 0
132 -218 -336 0
132 -231 -323 0
132 -239 -273 0
132 -252 -260 0
132 -239 -294 0
132 -252 -281 0
132 -239 -315 0
132 -252 -302 0
132 -239 -336 0
132 -252 -323 0
132 -260 -294 0
132 -273 -281 0
132 -260 -315 0
132 -273 -302 0
132 -260 -336 0
132 -273 -323 0
132 -281 -315 0
132 -294 -302 0
132 -281 -336 0
132 -294 -323 0
132 -302 -336 0
132 -315 -323 0
133 -219 -241 0
133 -220 -240 0
133 -219 -262 0
133 -220 -261 0
133 -219 -283 0
133 -220 -282 0
133 -219 -304 0
133 -220 -303 0
133 -219 -325 0
133 -220 -324 0
133 -240 -262 0
133 -241 -261 0
133 -240 -283 0
133 -241 -282 0
133 -240 -304 0
133 -241 -303 0
133 -240 -325 0
133 -241 -324 0
133 -261 -283 0
133 -262 -282 0
133 -261 -304 0
133 -262 -303 0
133 -261 -325 0
133 -262 -324 0
133 -282 -304 0
133 -283 -303 0
133 -282 -325 0
133 -283 -324 0
133 -303 -325 0
133 -304 -324 0
134 -219 -242 0
134 -221 -240 0
134 -219 -263 0
134 -221 -261 0
134 -219 -284 0
134 -221 -282 0
134 -219 -305 0
134 -221 -303 0
134 -219 -326 0
134 -221 -324 0
134 -240 -263 0
134 -242 -261 0
134 -240 -284 0
134 -242 -282 0
134 -240 -305 0
134 -242 -303 0
134 -240 -326 0
134 -242 -324 0
134 -261 -284 0
134 -263 -282 0
134 -261 -305 0
134 -263 -303 0
134 -261 -326 0
134 -263 -324 0
134 -282 -305 0
134 -284 -303 0
134 -282 -326 0
134 -284 -324 0
134 -303 -326 0
134 -305 -324 0
135 -219 -243 0
135 -222 -240 0
135 -219 -264 0
135 -222 -261 0
135 -219 -285 0
135 -222 -282 0
135 -219 -306 0
135 -222 -303 0
135 -219 -327 0
135 -222 -324 0
135 -240 -264 0
135 -243 -261 0
135 -240 -285 0
135 -243 -282 0
135 -240 -306 0
135 -243 -303 0
135 -240 -327 0
135 -243 -324 0
135 -261 -285 0
135 -264 -282 0
135 -261 -306 0
135 -264 -303 0
135 -261 -327 0
135 -264 -324 0
135 -282 -306 0
135 -285 -303 0
135 -282 -327 0
135 -285 -324 0
135 -303 -327 0
135 -306 -324 0
136 -219 -244 0
136 -223 -240 0
136 -219 -265 0
136 -223 -261 0
136 -219 -286 0
136 -223 -282 0
136 -219 -307 0
136 -223 -303 0
136 -219 -328 0
136 -223 -324 0
136 -240 -265 0
136 -244 -261 0
136 -240 -286 0
136 -244 -282 0
136 -240 -307 0
136 -244 -303 0
136 -240 -328 0
136 -244 -324 0
136 -261 -286 0
136 -265 -282 0
136 -261 -307 0
136 -265 -303 0
136 -261 -328 0
136 -265 -324 0
136 -282 -307 0
136 -286 -303 0
136 -282 -328 0
136 -286 -324 0
136 -303 -328 0
136 -307 -324 0
137 -219 -245 0
137 -224 -240 0
137 -219 -266 0
137 -224 -261 0
137 -219 -287 0
137 -224 -282 0
137 -219 -308 0
137 -224 -303 0
137 -219 -329 0
137 -224 -324 0
137 -240 -266 0
137 -245 -261 0
137 -240 -287 0
137 -245 -282 0
137 -240 -308 0
137 -245 -303 0
137 -240 -329 0
137 -245 -324 0
137 -261 -287 0
137 -266 -282 0
137 -261 -308 0
137 -266 -303 0
137 -261 -329 0
137 -266 -324 0
137 -282 -308 0
137 -287 -303 0
137 -282 -329 0
137 -287 -324 0
137 -303 -329 0
137 -308 -324 0
138 -219 -246 0
138 -225 -240 0
138 -219 -267 0
138 -225 -261 0
138 -219 -288 0
138 -225 -282 0
138 -219 -309 0
138 -225 -303 0
138 -219 -330 0
138 -225 -324 0
138 -240 -267 0
138 -246 -261 0
138 -240 -288 0
138 -246 -282 0
138 -240 -309 0
138 -246 -303 0
138 -240 -330 0
138 -246 -324 0
138 -261 -288 0
138 -267 -282 0
138 -261 -309 0
138 -267 -303 0
138 -261 -330 0
138 -267 -324 0
138 -282 -309 0
138 -288 -303 0
138 -282 -330 0
138 -288 -324 0
138 -303 -330 0
138 -309 -324 0
139 -219 -247 0
139 -226 -240 0
139 -219 -268 0
139 -226 -261 0
139 -219 -289 0
139 -226 -282 0
139 -219 -310 0
139 -226 -303 0
139 -219 -331 0
139 -226 -324 0
139 -240 -268 0
139 -247 -261 0
139 -240 -289 0
139 -247 -282 0
139 -240 -310 0
139 -247 -303 0
139 -240 -331 0
139 -247 -324 0
139 -261 -289 0
139 -268 -282 0
139 -261 -310 0
139 -268 -303 0
139 -261 -331 0
139 -268 -324 0
139 -282 -310 0
139 -289 -303 0
139 -282 -331 0
139 -289 -324 0
139 -303 -331 0
139 -310 -324 0
140 -219 -248 0
140 -227 -240 0
140 -219 -269 0
140 -227 -261 0
140 -219 -290 0
140 -227 -282 0
140 -219 -311 0
140 -227 -303 0
140 -219 -332 0
140 -227 -324 0
140 -240 -269 0
140 -248 -261 0
140 -240 -290 0
140 -248 -282 0
140 -240 -311 0
140 -248 -303 0
140 -240 -332 0
140 -248 -324 0
140 -261 -290 0
140 -269 -282 0
140 -261 -311 0
140 -269 -303 0
140 -261 -332 0
140 -269 -324 0
140 -282 -311 0
140 -290 -303 0
140 -282 -332 0
140 -290 -324 0
140 -303 -332 0
140 -311 -324 0
141 -219 -249 0
141 -228 -240 0
141 -219 -270 0
141 -228 -261 0
141 -219 -291 0
141 -228 -282 0
141 -219 -312 0
141 -228 -303 0
141 -219 -333 0
141 -228 -324 0
141 -240 -270 0
141 -249 -261 0
141 -240 -291 0
141 -249 -282 0
141 -240 -312 0
141 -249 -303 0
141 -240 -333 0
141 -249 -324 0
141 -261 -291 0
141 -270 -282 0
141 -261 -312 0
141 -270 -303 0
141 -261 -333 0
141 -270 -324 0
141 -282 -312 0
141 -291 -303 0
141 -282 -333 0
141 -291 -324 0
141 -303 -333 0
141 -312 -324 0
142 -219 -250 0
142 -229 -240 0
142 -219 -271 0
142 -229 -261 0
142 -219 -292 0
142 -229 -282 0
142 -219 -313 0
142 -229 -303 0
142 -219 -334 0
142 -229 -324 0
142 -240 -271 0
142 -250 -261 0
142 -240 -292 0
142 -250 -282 0
142 -240 -313 0
142 -250 -303 0
142 -240 -334 0
142 -250 -324 0
142 -261 -292 0
142 -271 -282 0
142 -261 -313 0
142 -271 -303 0
142 -261 -334 0
142 -271 -324 0
142 -282 -313 0
142 -292 -303 0
142 -282 -334 0
142 -292 -324 0
142 -303 -334 0
142 -313 -324 0
143 -219 -251 0
143 -230 -240 0
143 -219 -272 0
143 -230 -261 0
143 -219 -293 0
143 -230 -282 0
143 -219 -314 0
143 -230 -303 0
143 -219 -335 0
143 -230 -324 0
143 -240 -272 0
143 -251 -261 0
143 -240 -293 0
143 -251 -282 0
143 -240 -314 0
143 -251 -303 0
143 -240 -335 0
143 -251 -324 0
143 -261 -293 0
143 -272 -282 0
143 -261 -314 0
143 -272 -303 0
143 -261 -335 0
143 -272 -324 0
143 -282 -314 0
143 -293 -303 0
143 -282 -335 0
143 -293 -324 0
143 -303 -335 0
143 -314 -324 0
144 -219 -252 0
144 -231 -240 0
144 -219 -273 0
144 -231 -261 0
144 -219 -294 0
144 -231 -282 0
144 -219 -315 0
144 -231 -303 0
144 -219 -336 0
144 -231 -324 0
144 -240 -273 0
144 -252 -261 0
144 -240 -294 0
144 -252 -282 0
144 -240 -315 0
144 -252 -303 0
144 -240 -336 0
144 -252 -324 0
144 -261 -294 0
144 -273 -282 0
144 -261 -315 0
144 -273 -303 0
144 -261 -336 0
144 -273 -324 0
144 -282 -315 0
144 -294 -303 0
144 -282 -336 0
144 -294 -324 0
144 -303 -336 0
144 -315 -324 0
145 -220 -242 0
145 -221 -241 0
145 -220 -263 0
145 -221 -262 0
145 -220 -284 0
145 -221 -283 0
145 -220 -305 0
145 -221 -304 0
145 -220 -326 0
145 -221 -325 0
145 -241 -263 0
145 -242 -262 0
145 -241 -284 0
145 -242 -283 0
145 -241 -305 0
145 -242 -304 0
145 -241 -326 0
145 -242 -325 0
145 -262 -284 0
145 -263 -283 0
145 -262 -305 0
145 -263 -304 0
145 -262 -326 0
145 -263 -325 0
145 -283 -305 0
145 -284 -304 0
145 -283 -326 0
145 -284 -325 0
145 -304 -326 0
145 -305 -325 0
146 -220 -243 0
146 -222 -241 0
146 -220 -264 0
146 -222 -262 0
146 -220 -285 0
146 -222 -283 0
146 -220 -306 0
146 -222 -304 0
146 -220 -327 0
146 -222 -325 0
146 -241 -264 0
146 -243 -262 0
146 -241 -285 0
146 -243 -283 0
146 -241 -306 0
146 -243 -304 0
146 -241 -327 0
146 -243 -325 0
146 -262 -285 0
146 -264 -283 0
146 -262 -306 0
146 -264 -304 0
146 -262 -327 0
146 -264 -325 0
146 -283 -306 0
146 -285 -304 0
146 -283 -327 0
146 -285 -325 0
146 -304 -327 0
146 -306 -325 0
147 -220 -244 0
147 -223 -241 0
147 -220 -265 0
147 -223 -262 0
147 -220 -286 0
147 -223 -283 0
147 -220 -307 0
147 -223 -304 0
147 -220 -328 0
147 -223 -325 0
147 -241 -265 0
147 -244 -262 0
147 -241 -286 0
147 -244 -283 0
147 -241 -307 0
147 -244 -304 0
147 -241 -328 0
147 -244 -325 0
147 -262 -286 0
147 -265 -283 0
147 -262 -307 0
147 -265 -304 0
147 -262 -328 0
147 -265 -325 0
147 -283 -307 0
147 -286 -304 0
147 -283 -328 0
147 -286 -325 0
147 -304 -328 0
147 -307 -325 0
148 -220 -245 0
148 -224 -241 0
148 -220 -266 0
148 -224 -262 0
148 -220 -287 0
148 -224 -283 0
148 -220 -308 0
148 -224 -304 0
148 -220 -329 0
148 -224 -325 0
148 -241 -266 0
148 -245 -262 0
148 -241 -287 0
148 -245 -283 0
148 -241 -308 0
148 -245 -304 0
148 -241 -329 0
148 -245 -325 0
148 -262 -287 0
148 -266 -283 0
148 -262 -308 0
148 -266 -304 0
148 -262 -329 0
148 -266 -325 0
148 -283 -308 0
148 -287 -304 0
148 -283 -329 0
148 -287 -325 0
148 -304 -329 0
148 -308 -325 0
149 -220 -246 0
149 -225 -241 0
149 -220 -267 0
149 -225 -262 0
149 -220 -288 0
149 -225 -283 0
149 -220 -309 0
149 -225 -304 0
149 -220 -330 0
149 -225 -325 0
149 -241 -267 0
149 -246 -262 0
149 -241 -288 0
149 -246 -283 0
149 -241 -309 0
149 -246 -304 0
149 -241 -330 0
149 -246 -325 0
149 -262 -288 0
149 -267 -283 0
149 -262 -309 0
149 -267 -304 0
149 -262 -330 0
149 -267 -325 0
149 -283 -309 0
149 -288 -304 0
149 -283 -330 0
149 -288 -325 0
149 -304 -330 0
149 -309 -325 0
150 -220 -247 0
150 -226 -241 0
150 -220 -268 0
150 -226 -262 0
150 -220 -289 0
150 -226 -283 0
150 -220 -310 0
150 -226 -304 0
150 -220 -331 0
150 -226 -325 0
150 -241 -268 0
150 -247 -262 0
150 -241 -289 0
150 -247 -283 0
150 -241 -310 0
150 -247 -304 0
150 -241 -331 0
150 -247 -325 0
150 -262 -289 0
150 -268 -283 0
150 -262 -310 0
150 -268 -304 0
150 -262 -331 0
150 -268 -325 0
150 -283 -310 0
150 -289 -304 0
150 -283 -331 0
150 -289 -325 0
150 -304 -331 0
150 -310 -325 0
151 -220 -248 0
151 -227 -241 0
151 -220 -269 0
151 -227 -262 0
151 -220 -290 0
151 -227 -283 0
151 -220 -311 0
151 -227 -304 0
151 -220 -332 0
151 -227 -325 0
151 -241 -269 0
151 -248 -262 0
151 -241 -290 0
151 -248 -283 0
151 -241 -311 0
151 -248 -304 0
151 -241 -332 0
151 -248 -325 0
151 -262 -290 0
151 -269 -283 0
151 -262 -311 0
151 -269 -304 0
151 -262 -332 0
151 -269 -325 0
151 -283 -311 0
151 -290 -304 0
151 -283 -332 0
151 -290 -325 0
151 -304 -332 0
151 -311 -325 0
152 -220 -249 0
152 -228 -241 0
152 -220 -270 0
152 -228 -262 0
152 -220 -291 0
152 -228 -283 0
152 -220 -312 0
152 -228 -304 0
152 -220 -333 0
152 -228 -325 0
152 -241 -270 0
152 -249 -262 0
152 -241 -291 0
152 -249 -283 0
152 -241 -312 0
152 -249 -304 0
152 -241 -333 0
152 -249 -325 0
152 -262 -291 0
152 -270 -283 0
152 -262 -312 0
152 -270 -304 0
152 -262 -333 0
152 -270 -325 0
152 -283 -312 0
152 -291 -304 0
152 -283 -333 0
152 -291 -325 0
152 -304 -333 0
152 -312 -325 0
153 -220 -250 0
153 -229 -241 0
153 -220 -271 0
153 -229 -262 0
153 -220 -292 0
153 -229 -283 0
153 -220 -313 0
153 -229 -304 0
153 -220 -334 0
153 -229 -325 0
153 -241 -271 0
153 -250 -262 0
153 -241 -292 0
153 -250 -283 0
153 -241 -313 0
153 -250 -304 0
153 -241 -334 0
153 -250 -325 0
153 -262 -292 0
153 -271 -283 0
153 -262 -313 0
153 -271 -304 0
153 -262 -334 0
153 -271 -325 0
153 -283 -313 0
153 -292 -304 0
153 -283 -334 0
153 -292 -325 0
153 -304 -334 0
153 -313 -325 0
154 -220 -251 0
154 -230 -241 0
154 -220 -272 0
154 -230 -262 0
154 -220 -293 0
154 -230 -283 0
154 -220 -314 0
154 -230 -304 0
154 -220 -335 0
154 -230 -325 0
154 -241 -272 0
154 -251 -262 0
154 -241 -293 0
154 -251 -283 0
154 -241 -314 0
154 -251 -304 0
154 -241 -335 0
154 -251 -325 0
154 -262 -293 0
154 -272 -283 0
154 -262 -314 0
154 -272 -304 0
154 -262 -335 0
154 -272 -325 0
154 -283 -314 0
154 -293 -304 0
154 -283 -335 0
154 -293 -325 0
154 -304 -335 0
154 -314 -325 0
155 -220 -252 0
155 -231 -241 0
155 -220 -273 0
155 -231 -262 0
155 -220 -294 0
155 -231 -283 0
155 -220 -315 0
155 -231 -304 0
155 -220 -336 0
155 -231 -325 0
155 -241 -273 0
155 -252 -262 0
155 -241 -294 0
155 -252 -283 0
155 -241 -315 0
155 -252 -304 0
155 -241 -336 0
155 -252 -325 0
155 -262 -294 0
155 -273 -283 0
155 -262 -315 0
155 -273 -304 0
155 -262 -336 0
155 -273 -325 0
155 -283 -315 0
155 -294 -304 0
155 -283 -336 0
155 -294 -325 0
155 -304 -336 0
155 -315 -325 0
156 -221 -243 0
156 -222 -242 0
156 -221 -264 0
156 -222 -263 0
156 -221 -285 0
156 -222 -284 0
156 -221 -306 0
156 -222 -305 0
156 -221 -327 0
156 -222 -326 0
156 -242 -264 0
156 -243 -263 0
156 -242 -285 0
156 -243 -284 0
156 -242 -306 0
156 -243 -305 0
156 -242 -327 0
156 -243 -326 0
156 -263 -285 0
156 -264 -284 0
156 -263 -306 0
156 -264 -305 0
156 -263 -327 0
156 -264 -326 0
156 -284 -306 0
156 -285 -305 0
156 -284 -327 0
156 -285 -326 0
156 -305 -327 0
156 -306 -326 0
157 -221 -244 0
157 -223 -242 0
157 -221 -265 0
157 -223 -263 0
157 -221 -286 0
157 -223 -284 0
157 -221 -307 0
157 -223 -305 0
157 -221 -328 0
157 -223 -326 0
157 -242 -265 0
157 -244 -263 0
157 -242 -286 0
157 -244 -284 0
157 -242 -307 0
157 -244 -305 0
157 -242 -328 0
157 -244 -326 0
157 -263 -286 0
157 -265 -284 0
157 -263 -307 0
157 -265 -305 0
157 -263 -328 0
157 -265 -326 0
157 -284 -307 0
157 -286 -305 0
157 -284 -328 0
157 -286 -326 0
157 -305 -328 0
157 -307 -326 0
158 -221 -245 0
158 -224 -242 0
158 -221 -266 0
158 -224 -263 0
158 -221 -287 0
158 -224 -284 0
158 -221 -308 0
158 -224 -305 0
158 -221 -329 0
158 -224 -326 0
158 -242 -266 0
158 -245 -263 0
158 -242 -287 0
158 -245 -284 0
158 -242 -308 0
158 -245 -305 0
158 -242 -329 0
158 -245 -326 0
158 -263 -287 0
158 -266 -284 0
158 -263 -308 0
158 -266 -305 0
158 -263 -329 0
158 -266 -326 0
158 -284 -308 0
158 -287 -305 0
158 -284 -329 0
158 -287 -326 0
158 -305 -329 0
158 -308 -326 0
159 -221 -246 0
159 -225 -242 0
159 -221 -267 0
159 -225 -263 0
159 -221 -288 0
159 -225 -284 0
159 -221 -309 0
159 -225 -305 0
159 -221 -330 0
159 -225 -326 0
159 -242 -267 0
159 -246 -263 0
159 -242 -288 0
159 -246 -284 0
159 -242 -309 0
159 -246 -305 0
159 -242 -330 0
159 -246 -326 0
159 -263 -288 0
159 -267 -284 0
159 -263 -309 0
159 -267 -305 0
159 -263 -330 0
159 -267 -326 0
159 -284 -309 0
159 -288 -305 0
159 -284 -330 0
159 -288 -326 0
159 -305 -330 0
159 -309 -326 0
160 -221 -247 0
160 -226 -242 0
160 -221 -268 0
160 -226 -263 0
160 -221 -289 0
160 -226 -284 0
160 -221 -310 0
160 -226 -305 0
160 -221 -331 0
160 -226 -326 0
160 -242 -268 0
160 -247 -263 0
160 -242 -289 0
160 -247 -284 0
160 -242 -310 0
160 -247 -305 0
160 -242 -331 0
160 -247 -326 0
160 -263 -289 0
160 -268 -284 0
160 -263 -310 0
160 -268 -305 0
160 -263 -331 0
160 -268 -326 0
160 -284 -310 0
160 -289 -305 0
160 -284 -331 0
160 -289 -326 0
160 -305 -331 0
160 -310 -326 0
161 -221 -248 0
161 -227 -242 0
161 -221 -269 0
161 -227 -263 0
161 -221 -290 0
161 -227 -284 0
161 -221 -311 0
161 -227 -305 0
161 -221 -332 0
161 -227 -326 0
161 -242 -269 0
161 -248 -263 0
161 -242 -290 0
161 -248 -284 0
161 -242 -311 0
161 -248 -305 0
161 -242 -332 0
161 -248 -326 0
161 -263 -290 0
161 -269 -284 0
161 -263 -311 0
161 -269 -305 0
161 -263 -332 0
161 -269 -326 0
161 -284 -311 0
161 -290 -305 0
161 -284 -332 0
161 -290 -326 0
161 -305 -332 0
161 -311 -326 0
162 -221 -249 0
162 -228 -242 0
162 -221 -270 0
162 -228 -263 0
162 -221 -291 0
162 -228 -284 0
162 -221 -312 0
162 -228 -305 0
162 -221 -333 0
162 -228 -326 0
162 -242 -270 0
162 -249 -263 0
162 -242 -291 0
162 -249 -284 0
162 -242 -312 0
162 -249 -305 0
162 -242 -333 0
162 -249 -326 0
162 -263 -291 0
162 -270 -284 0
162 -263 -312 0
162 -270 -305 0
162 -263 -333 0
162 -270 -326 0
162 -284 -312 0
162 -291 -305 0
162 -284 -333 0
162 -291 -326 0
162 -305 -333 0
162 -312 -326 0
163 -221 -250 0
163 -229 -242 0
163 -221 -271 0
163 -229 -263 0
163 -221 -292 0
163 -229 -284 0
163 -221 -313 0
163 -229 -305 0
163 -221 -334 0
163 -229 -326 0
163 -242 -271 0
163 -250 -263 0
163 -242 -292 0
163 -250 -284 0
163 -242 -313 0
163 -250 -305 0
163 -242 -334 0
163 -250 -326 0
163 -263 -292 0
163 -271 -284 0
163 -263 -313 0
163 -271 -305 0
163 -263 -334 0
163 -271 -326 0
163 -284 -313 0
163 -292 -305 0
163 -284 -334 0
163 -292 -326 0
163 -305 -334 0
163 -313 -326 0
164 -221 -251 0
164 -230 -242 0
164 -221 -272 0
164 -230 -263 0
164 -221 -293 0
164 -230 -284 0
164 -221 -314 0
164 -230 -305 0
164 -221 -335 0
164 -230 -326 0
164 -242 -272 0
164 -251 -263 0
164 -242 -293 0
164 -251 -284 0
164 -242 -314 0
164 -251 -305 0
164 -242 -335 0
164 -251 -326 0
164 -263 -293 0
164 -272 -284 0
164 -263 -314 0
164 -272 -305 0
164 -263 -335 0
164 -272 -326 0
164 -284 -314 0
164 -293 -305 0
164 -284 -335 0
164 -293 -326 0
164 -305 -335 0
164 -314 -326 0
165 -221 -252 0
165 -231 -242 0
165 -221 -273 0
165 -231 -263 0
165 -221 -294 0
165 -231 -284 0
165 -221 -315 0
165 -231 -305 0
165 -221 -336 0
165 -231 -326 0
165 -242 -273 0
165 -252 -263 0
165 -242 -294 0
165 -252 -284 0
165 -242 -315 0
165 -252 -305 0
165 -242 -336 0
165 -252 -326 0
165 -263 -294 0
165 -273 -284 0
165 -263 -315 0
165 -273 -305 0
165 -263 -336 0
165 -273 -326 0
165 -284 -315 0
165 -294 -305 0
165 -284 -336 0
165 -294 -326 0
165 -305 -336 0
165 -315 -326 0
166 -222 -244 0
166 -223 -243 0
166 -222 -265 0
166 -223 -264 0
166 -222 -286 0
166 -223 -285 0
166 -222 -307 0
166 -223 -306 0
166 -222 -328 0
166 -223 -327 0
166 -243 -265 0
166 -244 -264 0
166 -243 -286 0
166 -244 -285 0
166 -243 -307 0
166 -244 -306 0
166 -243 -328 0
166 -244 -327 0
166 -264 -286 0
166 -265 -285 0
166 -264 -307 0
166 -265 -306 0
166 -264 -328 0
166 -265 -327 0
166 -285 -307 0
166 -286 -306 0
166 -285 -328 0
166 -286 -327 0
166 -306 -328 0
166 -307 -327 0
167 -222 -245 0
167 -224 -243 0
167 -222 -266 0
167 -224 -264 0
167 -222 -287 0
167 -224 -285 0
167 -222 -308 0
167 -224 -306 0
167 -222 -329 0
167 -224 -327 0
167 -243 -266 0
167 -245 -264 0
167 -243 -287 0
167 -245 -285 0
167 -243 -308 0
167 -245 -306 0
167 -243 -329 0
167 -245 -327 0
167 -264 -287 0
167 -266 -285 0
167 -264 -308 0
167 -266 -306 0
167 -264 -329 0
167 -266 -327 0
167 -285 -308 0
167 -287 -306 0
167 -285 -329 0
167 -287 -327 0
167 -306 -329 0
167 -308 -327 0
168 -222 -246 0
168 -225 -243 0
168 -222 -267 0
168 -225 -264 0
168 -222 -288 0
168 -225 -285 0
168 -222 -309 0
168 -225 -306 0
168 -222 -330 0
168 -225 -327 0
168 -243 -267 0
168 -246 -264 0
168 -243 -288 0
168 -246 -285 0
168 -243 -309 0
168 -246 -306 0
168 -243 -330 0
168 -246 -327 0
168 -264 -288 0
168 -267 -285 0
168 -264 -309 0
168 -267 -306 0
168 -264 -330 0
168 -267 -327 0
168 -285 -309 0
168 -288 -306 0
168 -285 -330 0
168 -288 -327 0
168 -306 -330 0
168 -309 -327 0
169 -222 -247 0
169 -226 -243 0
169 -222 -268 0
169 -226 -264 0
169 -222 -289 0
169 -226 -285 0
169 -222 -310 0
169 -226 -306 0
169 -222 -331 0
169 -226 -327 0
169 -243 -268 0
169 -247 -264 0
169 -243 -289 0
169 -247 -285 0
169 -243 -310 0
169 -247 -306 0
169 -243 -331 0
169 -247 -327 0
169 -264 -289 0
169 -268 -285 0
169 -264 -310 0
169 -268 -306 0
169 -264 -331 0
169 -268 -327 0
169 -285 -310 0
169 -289 -306 0
169 -285 -331 0
169 -289 -327 0
169 -306 -331 0
169 -310 -327 0
170 -222 -248 0
170 -227 -243 0
170 -222 -269 0
170 -227 -264 0
170 -222 -290 0
170 -227 -285 0
170 -222 -311 0
170 -227 -306 0
170 -222 -332 0
170 -227 -327 0
170 -243 -269 0
170 -248 -264 0
170 -243 -290 0
170 -248 -285 0
170 -243 -311 0
170 -248 -306 0
170 -243 -332 0
170 -248 -327 0
170 -264 -290 0
170 -269 -285 0
170 -264 -311 0
170 -269 -306 0
170 -264 -332 0
170 -269 -327 0
170 -285 -311 0
170 -290 -306 0
170 -285 -332 0
170 -290 -327 0
170 -306 -332 0
170 -311 -327 0
171 -222 -249 0
171 -228 -243 0
171 -222 -270 0
171 -228 -264 0
171 -222 -291 0
171 -228 -285 0
171 -222 -312 0
171 -228 -306 0
171 -222 -333 0
171 -228 -327 0
171 -243 -270 0
171 -249 -264 0
171 -243 -291 0
171 -249 -285 0
171 -243 -312 0
171 -249 -306 0
171 -243 -333 0
171 -249 -327 0
171 -264 -291 0
171 -270 -285 0
171 -264 -312 0
171 -270 -306 0
171 -264 -333 0
171 -270 -327 0
171 -285 -312 0
171 -291 -306 0
171 -285 -333 0
171 -291 -327 0
171 -306 -333 0
171 -312 -327 0
172 -222 -250 0
172 -229 -243 0
172 -222 -271 0
172 -229 -264 0
172 -222 -292 0
172 -229 -285 0
172 -222 -313 0
172 -229 -306 0
172 -222 -334 0
172 -229 -327 0
172 -243 -271 0
172 -250 -264 0
172 -243 -292 0
172 -250 -285 0
172 -243 -313 0
172 -250 -306 0
172 -243 -334 0
172 -250 -327 0
172 -264 -292 0
172 -271 -285 0
172 -264 -313 0
172 -271 -306 0
172 -264 -334 0
172 -271 -327 0
172 -285 -313 0
172 -292 -306 0
172 -285 -334 0
172 -292 -327 0
172 -306 -334 0
172 -313 -327 0
173 -222 -251 0
173 -230 -243 0
173 -222 -272 0
173 -230 -264 0
173 -222 -293 0
173 -230 -285 0
173 -222 -314 0
173 -230 -306 0
173 -222 -335 0
173 -230 -327 0
173 -243 -272 0
173 -251 -264 0
173 -243 -293 0
173 -251 -285 0
173 -243 -314 0
173 -251 -306 0
173 -243 -335 0
173 -251 -327 0
173 -264 -293 0
173 -272 -285 0
173 -264 -314 0
173 -272 -306 0
173 -264 -335 0
173 -272 -327 0
173 -285 -314 0
173 -293 -306 0
173 -285 -335 0
173 -293 -327 0
173 -306 -335 0
173 -314 -327 0
174 -222 -252 0
174 -231 -243 0
174 -222 -273 0
174 -231 -264 0
174 -222 -294 0
174 -231 -285 0
174 -222 -315 0
174 -231 -306 0
174 -222 -336 0
174 -231 -327 0
174 -243 -273 0
174 -252 -264 0
174 -243 -294 0
174 -252 -285 0
174 -243 -315 0
174 -252 -306 0
174 -243 -336 0
174 -252 -327 0
174 -264 -294 0
174 -273 -285 0
174 -264 -315 0
174 -273 -306 0
174 -264 -336 0
174 -273 -327 0
174 -285 -315 0
174 -294 -306 0
174 -285 -336 0
174 -294 -327 0
174 -306 -336 0
174 -315 -327 0
175 -223 -245 0
175 -224 -244 0
175 -223 -266 0
175 -224 -265 0
175 -223 -287 0
175 -224 -286 0
175 -223 -308 0
175 -224 -307 0
175 -223 -329 0
175 -224 -328 0
175 -244 -266 0
175 -245 -265 0
175 -244 -287 0
175 -245 -286 0
175 -244 -308 0
175 -245 -307 0
175 -244 -329 0
175 -245 -328 0
175 -265 -287 0
175 -266 -286 0
175 -265 -308 0
175 -266 -307 0
175 -265 -329 0
175 -266 -328 0
175 -286 -308 0
175 -287 -307 0
175 -286 -329 0
175 -287 -328 0
175 -307 -329 0
175 -308 -328 0
176 -223 -246 0
176 -225 -244 0
176 -223 -267 0
176 -225 -265 0
176 -223 -288 0
176 -225 -286 0
176 -223 -309 0
176 -225 -307 0
176 -223 -330 0
176 -225 -328 0
176 -244 -267 0
176 -246 -265 0
176 -244 -288 0
176 -246 -286 0
176 -244 -309 0
176 -246 -307 0
176 -244 -330 0
176 -246 -328 0
176 -265 -288 0
176 -267 -286 0
176 -265 -309 0
176 -267 -307 0
176 -265 -330 0
176 -267 -328 0
176 -286 -309 0
176 -288 -307 0
176 -286 -330 0
176 -288 -328 0
176 -307 -330 0
176 -309 -328 0
177 -223 -247 0
177 -226 -244 0
177 -223 -268 0
177 -226 -265 0
177 -223 -289 0
177 -226 -286 0
177 -223 -310 0
177 -226 -307 0
177 -223 -331 0
177 -226 -328 0
177 -244 -268 0
177 -247 -265 0
177 -244 -289 0
177 -247 -286 0
177 -244 -310 0
177 -247 -307 0
177 -244 -331 0
177 -247 -328 0
177 -265 -289 0
177 -268 -286 0
177 -265 -310 0
177 -268 -307 0
177 -265 -331 0
177 -268 -328 0
177 -286 -310 0
177 -289 -307 0
177 -286 -331 0
177 -289 -328 0
177 -307 -331 0
177 -310 -328 0
178 -223 -248 0
178 -227 -244 0
178 -223 -269 0
178 -227 -265 0
178 -223 -290 0
178 -227 -286 0
178 -223 -311 0
178 -227 -307 0
178 -223 -332 0
178 -227 -328 0
178 -244 -269 0
178 -248 -265 0
178 -244 -290 0
178 -248 -286 0
178 -244 -311 0
178 -248 -307 0
178 -244 -332 0
178 -248 -328 0
178 -265 -290 0
178 -269 -286 0
178 -265 -311 0
178 -269 -307 0
178 -265 -332 0
178 -269 -328 0
178 -286 -311 0
178 -290 -307 0
178 -286 -332 0
178 -290 -328 0
178 -307 -332 0
178 -311 -328 0
179 -223 -249 0
179 -228 -244 0
179 -223 -270 0
179 -228 -265 0
179 -223 -291 0
179 -228 -286 0
179 -223 -312 0
179 -228 -307 0
179 -223 -333 0
179 -228 -328 0
179 -244 -270 0
179 -249 -265 0
179 -244 -291 0
179 -249 -286 0
179 -244 -312 0
179 -249 -307 0
179 -244 -333 0
179 -249 -328 0
179 -265 -291 0
179 -270 -286 0
179 -265 -312 0
179 -270 -307 0
179 -265 -333 0
179 -270 -328 0
179 -286 -312 0
179 -291 -307 0
179 -286 -333 0
179 -291 -328 0
179 -307 -333 0
179 -312 -328 0
180 -223 -250 0
180 -229 -244 0
180 -223 -271 0
180 -229 -265 0
180 -223 -292 0
180 -229 -286 0
180 -223 -313 0
180 -229 -307 0
180 -223 -334 0
180 -229 -328 0
180 -244 -271 0
180 -250 -265 0
180 -244 -292 0
180 -250 -286 0
180 -244 -313 0
180 -250 -307 0
180 -244 -334 0
180 -250 -328 0
180 -265 -292 0
180 -271 -286 0
180 -265 -313 0
180 -271 -307 0
180 -265 -334 0
180 -271 -328 0
180 -286 -313 0
180 -292 -307 0
180 -286 -334 0
180 -292 -328 0
180 -307 -334 0
180 -313 -328 0
181 -223 -251 0
181 -230 -244 0
181 -223 -272 0
181 -230 -265 0
181 -223 -293 0
181 -230 -286 0
181 -223 -314 0
181 -230 -307 0
181 -223 -335 0
181 -230 -328 0
181 -244 -272 0
181 -251 -265 0
181 -244 -293 0
181 -251 -286 0
181 -244 -314 0
181 -251 -307 0
181 -244 -335 0
181 -251 -328 0
181 -265 -293 0
181 -272 -286 0
181 -265 -314 0
181 -272 -307 0
181 -265 -335 0
181 -272 -328 0
181 -286 -314 0
181 -293 -307 0
181 -286 -335 0
181 -293 -328 0
181 -307 -335 0
181 -314 -328 0
182 -223 -252 0
182 -231 -244 0
182 -223 -273 0
182 -231 -265 0
182 -223 -294 0
182 -231 -286 0
182 -223 -315 0
182 -231 -307 0
182 -223 -336 0
182 -231 -328 0
182 -244 -273 0
182 -252 -265 0
182 -244 -294 0
182 -252 -286 0
182 -244 -315 0
182 -252 -307 0
182 -244 -336 0
182 -252 -328 0
182 -265 -294 0
182 -273 -286 0
182 -265 -315 0
182 -273 -307 0
182 -265 -336 0
182 -273 -328 0
182 -286 -315 0
182 -294 -307 0
182 -286 -336 0
182 -294 -328 0
182 -307 -336 0
182 -315 -328 0
183 -224 -246 0
183 -225 -245 0
183 -224 -267 0
183 -225 -266 0
183 -224 -288 0
183 -225 -287 0
183 -224 -309 0
183 -225 -308 0
183 -224 -330 0
183 -225 -329 0
183 -245 -267 0
183 -246 -266 0
183 -245 -288 0
183 -246 -287 0
183 -245 -309 0
183 -246 -308 0
183 -245 -330 0
183 -246 -329 0
183 -266 -288 0
183 -267 -287 0
183 -266 -309 0
183 -267 -308 0
183 -266 -330 0
183 -267 -329 0
183 -287 -309 0
183 -288 -308 0
183 -287 -330 0
183 -288 -329 0
183 -308 -330 0
183 -309 -329 0
184 -224 -247 0
184 -226 -245 0
184 -224 -268 0
184 -226 -266 0
184 -224 -289 0
184 -226 -287 0
184 -224 -310 0
184 -226 -308 0
184 -224 -331 0
184 -226 -329 0
184 -245 -268 0
184 -247 -266 0
184 -245 -289 0
184 -247 -287 0
184 -245 -310 0
184 -247 -308 0
184 -245 -331 0
184 -247 -329 0
184 -266 -289 0
184 -268 -287 0
184 -266 -310 0
184 -268 -308 0
184 -266 -331 0
184 -268 -329 0
184 -287 -310 0
184 -289 -308 0
184 -287 -331 0
184 -289 -329 0
184 -308 -331 0
184 -310 -329 0
185 -224 -248 0
185 -227 -245 0
185 -224 -269 0
185 -227 -266 0
185 -224 -290 0
185 -227 -287 0
185 -224 -311 0
185 -227 -308 0
185 -224 -332 0
185 -227 -329 0
185 -245 -269 0
185 -248 -266 0
185 -245 -290 0
185 -248 -287 0
185 -245 -311 0
185 -248 -308 0
185 -245 -332 0
185 -248 -329 0
185 -266 -290 0
185 -269 -287 0
185 -266 -311 0
185 -269 -308 0
185 -266 -332 0
185 -269 -329 0
185 -287 -311 0
185 -290 -308 0
185 -287 -332 0
185 -290 -329 0
185 -308 -332 0
185 -311 -329 0
186 -224 -249 0
186 -228 -245 0
186 -224 -270 0
186 -228 -266 0
186 -224 -291 0
186 -228 -287 0
186 -224 -312 0
186 -228 -308 0
186 -224 -333 0
186 -228 -329 0
186 -245 -270 0
186 -249 -266 0
186 -245 -291 0
186 -249 -287 0
186 -245 -312 0
186 -249 -308 0
186 -245 -333 0
186 -249 -329 0
186 -266 -291 0
186 -270 -287 0
186 -266 -312 0
186 -270 -308 0
186 -266 -333 0
186 -270 -329 0
186 -287 -312 0
186 -291 -308 0
186 -287 -333 0
186 -291 -329 0
186 -308 -333 0
186 -312 -329 0
187 -224 -250 0
187 -229 -245 0
187 -224 -271 0
187 -229 -266 0
187 -224 -292 0
187 -229 -287 0
187 -224 -313 0
187 -229 -308 0
187 -224 -334 0
187 -229 -329 0
187 -245 -271 0
187 -250 -266 0
187 -245 -292 0
187 -250 -287 0
187 -245 -313 0
187 -250 -308 0
187 -245 -334 0
187 -250 -329 0
187 -266 -292 0
187 -271 -287 0
187 -266 -313 0
187 -271 -308 0
187 -266 -334 0
187 -271 -329 0
187 -287 -313 0
187 -292 -308 0
187 -287 -334 0
187 -292 -329 0
187 -308 -334 0
187 -313 -329 0
188 -224 -251 0
188 -230 -245 0
188 -224 -272 0
188 -230 -266 0
188 -224 -293 0
188 -230 -287 0
188 -224 -314 0
188 -230 -308 0
188 -224 -335 0
188 -230 -329 0
188 -245 -272 0
188 -251 -266 0
188 -245 -293 0
188 -251 -287 0
188 -245 -314 0
188 -251 -308 0
188 -245 -335 0
188 -251 -329 0
188 -266 -293 0
188 -272 -287 0
188 -266 -314 0
188 -272 -308 0
188 -266 -335 0
188 -272 -329 0
188 -287 -314 0
188 -293 -308 0
188 -287 -335 0
188 -293 -329 0
188 -308 -335 0
188 -314 -329 0
189 -224 -252 0
189 -231 -245 0
189 -224 -273 0
189 -231 -266 0
189 -224 -294 0
189 -231 -287 0
189 -224 -315 0
189 -231 -308 0
189 -224 -336 0
189 -231 -329 0
189 -245 -273 0
189 -252 -266 0
189 -245 -294 0
189 -252 -287 0
189 -245 -315 0
189 -252 -308 0
189 -245 -336 0
189 -252 -329 0
189 -266 -294 0
189 -273 -287 0
189 -266 -315 0
189 -273 -308 0
189 -266 -336 0
189 -273 -329 0
189 -287 -315 0
189 -294 -308 0
189 -287 -336 0
189 -294 -329 0
189 -308 -336 0
189 -315 -329 0
190 -225 -247 0
190 -226 -246 0
190 -225 -268 0
190 -226 -267 0
190 -225 -289 0
190 -226 -288 0
190 -225 -310 0
190 -226 -309 0
190 -225 -331 0
190 -226 -330 0
190 -246 -268 0
190 -247 -267 0
190 -246 -289 0
190 -247 -288 0
190 -246 -310 0
190 -247 -309 0
190 -246 -331 0
190 -247 -330 0
190 -267 -289 0
190 -268 -288 0
190 -267 -310 0
190 -268 -309 0
190 -267 -331 0
190 -268 -330 0
190 -288 -310 0
190 -289 -309 0
190 -288 -331 0
190 -289 -330 0
190 -309 -331 0
190 -310 -330 0
191 -225 -248 0
191 -227 -246 0
191 -225 -269 0
191 -227 -267 0
191 -225 -290 0
191 -227 -288 0
191 -225 -311 0
191 -227 -309 0
191 -225 -332 0
191 -227 -330 0
191 -246 -269 0
191 -248 -267 0
191 -246 -290 0
191 -248 -288 0
191 -246 -311 0
191 -248 -309 0
191 -246 -332 0
191 -248 -330 0
191 -267 -290 0
191 -269 -288 0
191 -267 -311 0
191 -269 -309 0
191 -267 -332 0
191 -269 -330 0
191 -288 -311 0
191 -290 -309 0
191 -288 -332 0
191 -290 -330 0
191 -309 -332 0
191 -311 -330 0
192 -225 -249 0
192 -228 -246 0
192 -225 -270 0
192 -228 -267 0
192 -225 -291 0
192 -228 -288 0
192 -225 -312 0
192 -228 -309 0
192 -225 -333 0
192 -228 -330 0
192 -246 -270 0
192 -249 -267 0
192 -246 -291 0
192 -249 -288 0
192 -246 -312 0
192 -249 -309 0
192 -246 -333 0
192 -249 -330 0
192 -267 -291 0
192 -270 -288 0
192 -267 -312 0
192 -270 -309 0
192 -267 -333 0
192 -270 -330 0
192 -288 -312 0
192 -291 -309 0
192 -288 -333 0
192 -291 -330 0
192 -309 -333 0
192 -312 -330 0
193 -225 -250 0
193 -229 -246 0
193 -225 -271 0
193 -229 -267 0
193 -225 -292 0
193 -229 -288 0
193 -225 -313 0
193 -229 -309 0
193 -225 -334 0
193 -229 -330 0
193 -246 -271 0
193 -250 -267 0
193 -246 -292 0
193 -250 -288 0
193 -246 -313 0
193 -250 -309 0
193 -246 -334 0
193 -250 -330 0
193 -267 -292 0
193 -271 -288 0
193 -267 -313 0
193 -271 -309 0
193 -267 -334 0
193 -271 -330 0
193 -288 -313 0
193 -292 -309 0
193 -288 -334 0
193 -292 -330 0
193 -309 -334 0
193 -313 -330 0
194 -225 -251 0
194 -230 -246 0
194 -225 -272 0
194 -230 -267 0
194 -225 -293 0
194 -230 -288 0
194 -225 -314 0
194 -230 -309 0
194 -225 -335 0
194 -230 -330 0
194 -246 -272 0
194 -251 -267 0
194 -246 -293 0
194 -251 -288 0
194 -246 -314 0
194 -251 -309 0
194 -246 -335 0
194 -251 -330 0
194 -267 -293 0
194 -272 -288 0
194 -267 -314 0
194 -272 -309 0
194 -267 -335 0
194 -272 -330 0
194 -288 -314 0
194 -293 -309 0
194 -288 -335 0
194 -293 -330 0
194 -309 -335 0
194 -314 -330 0
195 -225 -252 0
195 -231 -246 0
195 -225 -273 0
195 -231 -267 0
195 -225 -294 0
195 -231 -288 0
195 -225 -315 0
195 -231 -309 0
195 -225 -336 0
195 -231 -330 0
195 -246 -273 0
195 -252 -267 0
195 -246 -294 0
195 -252 -288 0
195 -246 -315 0
195 -252 -309 0
195 -246 -336 0
195 -252 -330 0
195 -267 -294 0
195 -273 -288 0
195 -267 -315 0
195 -273 -309 0
195 -267 -336 0
195 -273 -330 0
195 -288 -315 0
195 -294 -309 0
195 -288 -336 0
195 -294 -330 0
195 -309 -336 0
195 -315 -330 0
196 -226 -248 0
196 -227 -247 0
196 -226 -269 0
196 -227 -268 0
196 -226 -290 0
196 -227 -289 0
196 -226 -311 0
196 -227 -310 0
196 -226 -332 0
196 -227 -331 0
196 -247 -269 0
196 -248 -268 0
196 -247 -290 0
196 -248 -289 0
196 -247 -311 0
196 -248 -310 0
196 -247 -332 0
196 -248 -331 0
196 -268 -290 0
196 -269 -289 0
196 -268 -311 0
196 -269 -310 0
196 -268 -332 0
196 -269 -331 0
196 -289 -311 0
196 -290 -310 0
196 -289 -332 0
196 -290 -331 0
196 -310 -332 0
196 -311 -331 0
197 -226 -249 0
197 -228 -247 0
197 -226 -270 0
197 -228 -268 0
197 -226 -291 0
197 -228 -289 0
197 -226 -312 0
197 -228 -310 0
197 -226 -333 0
197 -228 -331 0
197 -247 -270 0
197 -249 -268 0
197 -247 -291 0
197 -249 -289 0
197 -247 -312 0
197 -249 -310 0
197 -247 -333 0
197 -249 -331 0
197 -268 -291 0
197 -270 -289 0
197 -268 -312 0
197 -270 -310 0
197 -268 -333 0
197 -270 -331 0
197 -289 -312 0
197 -291 -310 0
197 -289 -333 0
197 -291 -331 0
197 -310 -333 0
197 -312 -331 0
198 -226 -250 0
198 -229 -247 0
198 -226 -271 0
198 -229 -268 0
198 -226 -292 0
198 -229 -289 0
198 -226 -313 0
198 -229 -310 0
198 -226 -334 0
198 -229 -331 0
198 -247 -271 0
198 -250 -268 0
198 -247 -292 0
198 -250 -289 0
198 -247 -313 0
198 -250 -310 0
198 -247 -334 0
198 -250 -331 0
198 -268 -292 0
198 -271 -289 0
198 -268 -313 0
198 -271 -310 0
198 -268 -334 0
198 -271 -331 0
198 -289 -313 0
198 -292 -310 0
198 -289 -334 0
198 -292 -331 0
198 -310 -334 0
198 -313 -331 0
199 -226 -251 0
199 -230 -247 0
199 -226 -272 0
199 -230 -268 0
199 -226 -293 0
199 -230 -289 0
199 -226 -314 0
199 -230 -310 0
199 -226 -335 0
199 -230 -331 0
199 -247 -272 0
199 -251 -268 0
199 -247 -293 0
199 -251 -289 0
199 -247 -314 0
199 -251 -310 0
199 -247 -335 0
199 -251 -331 0
199 -268 -293 0
199 -272 -289 0
199 -268 -314 0
199 -272 -310 0
199 -268 -335 0
199 -272 -331 0
199 -289 -314 0
199 -293 -310 0
199 -289 -335 0
199 -293 -331 0
199 -310 -335 0
199 -314 -331 0
200 -226 -252 0
200 -231 -247 0
200 -226 -273 0
200 -231 -268 0
200 -226 -294 0
200 -231 -289 0
200 -226 -315 0
200 -231 -310 0
200 -226 -336 0
200 -231 -331 0
200 -247 -273 0
200 -252 -268 0
200 -247 -294 0
200 -252 -289 0
200 -247 -315 0
200 -252 -310 0
200 -247 -336 0
200 -252 -331 0
200 -268 -294 0
200 -273 -289 0
200 -268 -315 0
200 -273 -310 0
200 -268 -336 0
200 -273 -331 0
200 -289 -315 0
200 -294 -310 0
200 -289 -336 0
200 -294 -331 0
200 -310 -336 0
200 -315 -331 0
201 -227 -249 0
201 -228 -248 0
201 -227 -270 0
201 -228 -269 0
201 -227 -291 0
201 -228 -290 0
201 -227 -312 0
201 -228 -311 0
201 -227 -333 0
201 -228 -332 0
201 -248 -270 0
201 -249 -269 0
201 -248 -291 0
201 -249 -290 0
201 -248 -312 0
201 -249 -311 0
201 -248 -333 0
201 -249 -332 0
201 -269 -291 0
201 -270 -290 0
201 -269 -312 0
201 -270 -311 0
201 -269 -333 0
201 -270 -332 0
201 -290 -312 0
201 -291 -311 0
201 -290 -333 0
201 -291 -332 0
201 -311 -333 0
201 -312 -332 0
202 -227 -250 0
202 -229 -248 0
202 -227 -271 0
202 -229 -269 0
202 -227 -292 0
202 -229 -290 0
202 -227 -313 0
202 -229 -311 0
202 -227 -334 0
202 -229 -332 0
202 -248 -271 0
202 -250 -269 0
202 -248 -292 0
202 -250 -290 0
202 -248 -313 0
202 -250 -311 0
202 -248 -334 0
202 -250 -332 0
202 -269 -292 0
202 -271 -290 0
202 -269 -313 0
202 -271 -311 0
202 -269 -334 0
202 -271 -332 0
202 -290 -313 0
202 -292 -311 0
202 -290 -334 0
202 -292 -332 0
202 -311 -334 0
202 -313 -332 0
203 -227 -251 0
203 -230 -248 0
203 -227 -272 0
203 -230 -269 0
203 -227 -293 0
203 -230 -290 0
203 -227 -314 0
203 -230 -311 0
203 -227 -335 0
203 -230 -332 0
203 -248 -272 0
203 -251 -269 0
203 -248 -293 0
203 -251 -290 0
203 -248 -314 0
203 -251 -311 0
203 -248 -335 0
203 -251 -332 0
203 -269 -293 0
203 -272 -290 0
203 -269 -314 0
203 -272 -311 0
203 -269 -335 0
203 -272 -332 0
203 -290 -314 0
203 -293 -311 0
203 -290 -335 0
203 -293 -332 0
203 -311 -335 0
203 -314 -332 0
204 -227 -252 0
204 -231 -248 0
204 -227 -273 0
204 -231 -269 0
204 -227 -294 0
204 -231 -290 0
204 -227 -315 0
204 -231 -311 0
204 -227 -336 0
204 -231 -332 0
204 -248 -273 0
204 -252 -269 0
204 -248 -294 0
204 -252 -290 0
204 -248 -315 0
204 -252 -311 0
204 -248 -336 0
204 -252 -332 0
204 -269 -294 0
204 -273 -290 0
204 -269 -315 0
204 -273 -311 0
204 -269 -336 0
204 -273 -332 0
204 -290 -315 0
204 -294 -311 0
204 -290 -336 0
204 -294 -332 0
204 -311 -336 0
204 -315 -332 0
205 -228 -250 0
205 -229 -249 0
205 -228 -271 0
205 -229 -270 0
205 -228 -292 0
205 -229 -291 0
205 -228 -313 0
205 -229 -312 0
205 -228 -334 0
205 -229 -333 0
205 -249 -271 0
205 -250 -270 0
205 -249 -292 0
205 -250 -291 0
205 -249 -313 0
205 -250 -312 0
205 -249 -334 0
205 -250 -333 0
205 -270 -292 0
205 -271 -291 0
205 -270 -313 0
205 -271 -312 0
205 -270 -334 0
205 -271 -333 0
205 -291 -313 0
205 -292 -312 0
205 -291 -334 0
205 -292 -333 0
205 -312 -334 0
205 -313 -333 0
206 -228 -251 0
206 -230 -249 0
206 -228 -272 0
206 -230 -270 0
206 -228 -293 0
206 -230 -291 0
206 -228 -314 0
206 -230 -312 0
206 -228 -335 0
206 -230 -333 0
206 -249 -272 0
206 -251 -270 0
206 -249 -293 0
206 -251 -291 0
206 -249 -314 0
206 -251 -312 0
206 -249 -335 0
206 -251 -333 0
206 -270 -293 0
206 -272 -291 0
206 -270 -314 0
206 -272 -312 0
206 -270 -335 0
206 -272 -333 0
206 -291 -314 0
206 -293 -312 0
206 -291 -335 0
206 -293 -333 0
206 -312 -335 0
206 -314 -333 0
207 -228 -252 0
207 -231 -249 0
207 -228 -273 0
207 -231 -270 0
207 -228 -294 0
207 -231 -291 0
207 -228 -315 0
207 -231 -312 0
207 -228 -336 0
207 -231 -333 0
207 -249 -273 0
207 -252 -270 0
207 -249 -294 0
207 -252 -291 0
207 -249 -315 0
207 -252 -312 0
207 -249 -336 0
207 -252 -333 0
207 -270 -294 0
207 -273 -291 0
207 -270 -315 0
207 -273 -312 0
207 -270 -336 0
207 -273 -333 0
207 -291 -315 0
207 -294 -312 0
207 -291 -336 0
207 -294 -333 0
207 -312 -336 0
207 -315 -333 0
208 -229 -251 0
208 -230 -250 0
208 -229 -272 0
208 -230 -271 0
208 -229 -293 0
208 -230 -292 0
208 -229 -314 0
208 -230 -313 0
208 -229 -335 0
208 -230 -334 0
208 -250 -272 0
208 -251 -271 0
208 -250 -293 0
208 -251 -292 0
208 -250 -314 0
208 -251 -313 0
208 -250 -335 0
208 -251 -334 0
208 -271 -293 0
208 -272 -292 0
208 -271 -314 0
208 -272 -313 0
208 -271 -335 0
208 -272 -334 0
208 -292 -314 0
208 -293 -313 0
208 -292 -335 0
208 -293 -334 0
208 -313 -335 0
208 -314 -334 0
209 -229 -252 0
209 -231 -250 0
209 -229 -273 0
209 -231 -271 0
209 -229 -294 0
209 -231 -292 0
209 -229 -315 0
209 -231 -313 0
209 -229 -336 0
209 -231 -334 0
209 -250 -273 0
209 -252 -271 0
209 -250 -294 0
209 -252 -292 0
209 -250 -315 0
209 -252 -313 0
209 -250 -336 0
209 -252 -334 0
209 -271 -294 0
209 -273 -292 0
209 -271 -315 0
209 -273 -313 0
209 -271 -336 0
209 -273 -334 0
209 -292 -315 0
209 -294 -313 0
209 -292 -336 0
209 -294 -334 0
209 -313 -336 0
209 -315 -334 0
210 -230 -252 0
210 -231 -251 0
210 -230 -273 0
210 -231 -272 0
210 -230 -294 0
210 -231 -293 0
210 -230 -315 0
210 -231 -314 0
210 -230 -336 0
210 -231 -335 0
210 -251 -273 0
210 -252 -272 0
210 -251 -294 0
210 -252 -293 0
210 -251 -315 0
210 -252 -314 0
210 -251 -336 0
210 -252 -335 0
210 -272 -294 0
210 -273 -293 0
210 -272 -315 0
210 -273 -314 0
210 -272 -336 0
210 -273 -335 0
210 -293 -315 0
210 -294 -314 0
210 -293 -336 0
210 -294 -335 0
210 -314 -336 0
210 -315 -335 0
337 338 339 340 341 0
342 343 344 345 346 0
347 348 349 350 351 0
352 353 354 355 356 0
357 358 359 360 361 0
362 363 364 365 366 0
367 368 369 370 371 0
372 373 374 375 376 0
377 378 379 380 381 0
382 383 384 385 386 0
387 388 389 390 391 0
392 393 394 395 396 0
397 398 399 400 401 0
402 403 404 405 406 0
407 408 409 410 411 0
412 413 414 415 416 0
417 418 419 420 421 0
422 423 424 425 426 0
427 428 429 430 431 0
432 433 434 435 436 0
437 438 439 440 441 0
-337 -338 0
-337 -339 0
-337 -340 0
-337 -341 0
-338 -339 0
-338 -340 0
-338 -341 0
-339 -340 0
-339 -341 0
-340 -341 0
-342 -343 0
-342 -344 0
-342 -345 0
-342 -346 0
-343 -344 0
-343 -345 0
-343 -346 0
-344 -345 0
-344 -346 0
-345 -346 0
-347 -348 0
-347 -349 0
-347 -350 0
-347 -351 0
-348 -349 0
-348 -350 0
-348 -351 0
-349 -350 0
-349 -351 0
-350 -351 0
-352 -353 0
-352 -354 0
-352 -355 0
-352 -356 0
-353 -354 0
-353 -355 0
-353 -356 0
-354 -355 0
-354 -356 0
-355 -356 0
-357 -358 0
-357 -359 0
-357 -360 0
-357 -361 0
-358 -359 0
-358 -360 0
-358 -361 0
-359 -360 0
-359 -361 0
-360 -361 0
-362 -363 0
-362 -364 0
-362 -365 0
-362 -366 0
-363 -364 0
-363 -365 0
-363 -366 0
-364 -365 0
-364 -366 0
-365 -366 0
-367 -368 0
-367 -369 0
-367 -370 0
-367 -371 0
-368 -369 0
-368 -370 0
-368 -371 0
-369 -370 0
-369 -371 0
-370 -371 0
-372 -373 0
-372 -374 0
-372 -375 0
-372 -376 0
-373 -374 0
-373 -375 0
-373 -376 0
-374 -375 0
-374 -376 0
-375 -376 0
-377 -378 0
-377 -379 0
-377 -380 0
-377 -381 0
-378 -379 0
-378 -380 0
-378 -381 0
-379 -380 0
-379 -381 0
-380 -381 0
-382 -383 0
-382 -384 0
-382 -385 0
-382 -386 0
-383 -384 0
-383 -385 0
-383 -386 0
-384 -385 0
-384 -386 0
-385 -386 0
-387 -388 0
-387 -389 0
-387 -390 0
-387 -391 0
-388 -389 0
-388 -390 0
-388 -391 0
-389 -390 0
-389 -391 0
-390 -391 0
-392 -393 0
-392 -394 0
-392 -395 0
-392 -396 0
-393 -394 0
-393 -395 0
-393 -396 0
-394 -395 0
-394 -396 0
-395 -396 0
-397 -398 0
-397 -399 0
-397 -400 0
-397 -401 0
-398 -399 0
-398 -400 0
-398 -401 0
-399 -400 0
-399 -401 0
-400 -401 0
-402 -403 0
-402 -404 0
-402 -405 0
-402 -406 0
-403 -404 0
-403 -405 0
-403 -406 0
-404 -405 0
-404 -406 0
-405 -406 0
-407 -408 0
-407 -409 0
-407 -410 0
-407 -411 0
-408 -409 0
-408 -410 0
-408 -411 0
-409 -410 0
-409 -411 0
-410 -411 0
-412 -413 0
-412 -414 0
-412 -415 0
-412 -416 0
-413 -414 0
-413 -415 0
-413 -416 0
-414 -415 0
-414 -416 0
-415 -416 0
-417 -418 0
-417 -419 0
-417 -420 0
-417 -421 0
-418 -419 0
-418 -420 0
-418 -421 0
-419 -420 0
-419 -421 0
-420 -421 0
-422 -423 0
-422 -424 0
-422 -425 0
-422 -426 0
-423 -424 0
-423 -425 0
-423 -426 0
-424 -425 0
-424 -426 0
-425 -426 0
-427 -428 0
-427 -429 0
-427 -430 0
-427 -431 0
-428 -429 0
-428 -430 0
-428 -431 0
-429 -430 0
-429 -431 0
-430 -431 0
-432 -433 0
-432 -434 0
-432 -435 0
-432 -436 0
-433 -434 0
-433 -435 0
-433 -436 0
-434 -435 0
-434 -436 0
-435 -436 0
-437 -438 0
-437 -439 0
-437 -440 0
-437 -441 0
-438 -439 0
-438 -440 0
-438 -441 0
-439 -440 0
-439 -441 0
-440 -441 0
-1 -337 -342 0
-1 -338 -343 0
-1 -339 -344 0
-1 -340 -345 0
-1 -341 -346 0
-2 -337 -347 0
-2 -338 -348 0
-2 -339 -349 0
-2 -340 -350 0
-2 -341 -351 0
-3 -337 -352 0
-3 -338 -353 0
-3 -339 -354 0
-3 -340 -355 0
-3 -341 -356 0
-4 -337 -357 0
-4 -338 -358 0
-4 -339 -359 0
-4 -340 -360 0
-4 -341 -361 0
-5 -337 -362 0
-5 -338 -363 0
-5 -339 -364 0
-5 -340 -365 0
-5 -341 -366 0
-6 -337 -367 0
-6 -338 -368 0
-6 -339 -369 0
-6 -340 -370 0
-6 -341 -371 0
-7 -337 -372 0
-7 -338 -373 0
-7 -339 -374 0
-7 -340 -375 0
-7 -341 -376 0
-8 -337 -377 0
-8 -338 -378 0
-8 -339 -379 0
-8 -340 -380 0
-8 -341 -381 0
-9 -337 -382 0
-9 -338 -383 0
-9 -339 -384 0
-9 -340 -385 0
-9 -341 -386 0
-10 -337 -387 0
-10 -338 -388 0
-10 -339 -389 0
-10 -340 -390 0
-10 -341 -391 0
-11 -337 -392 0
-11 -338 -393 0
-11 -339 -394 0
-11 -340 -395 0
-11 -341 -396 0
-12 -337 -397 0
-12 -338 -398 0
-12 -339 -399 0
-12 -340 -400 0
-12 -341 -401 0
-13 -337 -402 0
-13 -338 -403 0
-13 -339 -404 0
-13 -340 -405 0
-13 -341 -406 0
-14 -337 -407 0
-14 -338 -408 0
-14 -339 -409 0
-14 -340 -410 0
-14 -341 -411 0
-15 -337 -412 0
-15 -338 -413 0
-15 -339 -414 0
-15 -340 -415 0
-15 -341 -416 0
-16 -337 -417 0
-16 -338 -418 0
-16 -339 -419 0
-16 -340 -420 0
-16 -341 -421 0
-17 -337 -422 0
-17 -338 -423 0
-17 -339 -424 0
-17 -340 -425 0
-17 -341 -426 0
-18 -337 -427 0
-18 -338 -428 0
-18 -339 -429 0
-18 -340 -430 0
-18 -341 -431 0
-19 -337 -432 0
-19 -338 -433 0
-19 -339 -434 0
-19 -340 -435 0
-19 -341 -436 0
-20 -337 -437 0
-20 -338 -438 0
-20 -339 -439 0
-20 -340 -440 0
-20 -341 -441 0
-21 -342 -347 0
-21 -343 -348 0
-21 -344 -349 0
-21 -345 -350 0
-21 -346 -351 0
-22 -342 -352 0
-22 -343 -353 0
-22 -344 -354 0
-22 -345 -355 0
-22 -346 -356 0
-23 -342 -357 0
-23 -343 -358 0
-23 -344 -359 0
-23 -345 -360 0
-23 -346 -361 0
-24 -342 -362 0
-24 -343 -363 0
-24 -344 -364 0
-24 -345 -365 0
-24 -346 -366 0
-25 -342 -367 0
-25 -343 -368 0
-25 -344 -369 0
-25 -345 -370 0
-25 -346 -371 0
-26 -342 -372 0
-26 -343 -373 0
-26 -344 -374 0
-26 -345 -375 0
-26 -346 -376 0
-27 -342 -377 0
-27 -343 -378 0
-27 -344 -379 0
-27 -345 -380 0
-27 -346 -381 0
-28 -342 -382 0
-28 -343 -383 0
-28 -344 -384 0
-28 -345 -385 0
-28 -346 -386 0
-29 -342 -387 0
-29 -343 -388 0
-29 -344 -389 0
-29 -345 -390 0
-29 -346 -391 0
-30 -342 -392 0
-30 -343 -393 0
-30 -344 -394 0
-30 -345 -395 0
-30 -346 -396 0
-31 -342 -397 0
-31 -343 -398 0
-31 -344 -399 0
-31 -345 -400 0
-31 -346 -401 0
-32 -342 -402 0
-32 -343 -403 0
-32 -344 -404 0
-32 -345 -405 0
-32 -346 -406 0
-33 -342 -407 0
-33 -343 -408 0
-33 -344 -409 0
-33 -345 -410 0
-33 -346 -411 0
-34 -342 -412 0
-34 -343 -413 0
-34 -344 -414 0
-34 -345 -415 0
-34 -346 -416 0
-35 -342 -417 0
-35 -343 -418 0
-35 -344 -419 0
-35 -345 -420 0
-35 -346 -421 0
-36 -342 -422 0
-36 -343 -423 0
-36 -344 -424 0
-36 -345 -425 0
-36 -346 -426 0
-37 -342 -427 0
-37 -343 -428 0
-37 -344 -429 0
-37 -345 -430 0
-37 -346 -431 0
-38 -342 -432 0
-38 -343 -433 0
-38 -344 -434 0
-38 -345 -435 0
-38 -346 -436 0
-39 -342 -437 0
-39 -343 -438 0
-39 -344 -439 0
-39 -345 -440 0
-39 -346 -441 0
-40 -347 -352 0
-40 -348 -353 0
-40 -349 -354 0
-40 -350 -355 0
-40 -351 -356 0
-41 -347 -357 0
-41 -348 -358 0
-41 -349 -359 0
-41 -350 -360 0
-41 -351 -361 0
-42 -347 -362 0
-42 -348 -363 0
-42 -349 -364 0
-42 -350 -365 0
-42 -351 -366 0
-43 -347 -367 0
-43 -348 -368 0
-43 -349 -369 0
-43 -350 -370 0
-43 -351 -371 0
-44 -347 -372 0
-44 -348 -373 0
-44 -349 -374 0
-44 -350 -375 0
-44 -351 -376 0
-45 -347 -377 0
-45 -348 -378 0
-45 -349 -379 0
-45 -350 -380 0
-45 -351 -381 0
-46 -347 -382 0
-46 -348 -383 0
-46 -349 -384 0
-46 -350 -385 0
-46 -351 -386 0
-47 -347 -387 0
-47 -348 -388 0
-47 -349 -389 0
-47 -350 -390 0
-47 -351 -391 0
-48 -347 -392 0
-48 -348 -393 0
-48 -349 -394 0
-48 -350 -395 0
-48 -351 -396 0
-49 -347 -397 0
-49 -348 -398 0
-49 -349 -399 0
-49 -350 -400 0
-49 -351 -401 0
-50 -347 -402 0
-50 -348 -403 0
-50 -349 -404 0
-50 -350 -405 0
-50 -351 -406 0
-51 -347 -407 0
-51 -348 -408 0
-51 -349 -409 0
-51 -350 -410 0
-51 -351 -411 0
-52 -347 -412 0
-52 -348 -413 0
-52 -349 -414 0
-52 -350 -415 0
-52 -351 -416 0
-53 -347 -417 0
-53 -348 -418 0
-53 -349 -419 0
-53 -350 -420 0
-53 -351 -421 0
-54 -347 -422 0
-54 -348 -423 0
-54 -349 -424 0
-54 -350 -425 0
-54 -351 -426 0
-55 -347 -427 0
-55 -348 -428 0
-55 -349 -429 0
-55 -350 -430 0
-55 -351 -431 0
-56 -347 -432 0
-56 -348 -433 0
-56 -349 -434 0
-56 -350 -435 0
-56 -351 -436 0
-57 -347 -437 0
-57 -348 -438 0
-57 -349 -439 0
-57 -350 -440 0
-57 -351 -441 0
-58 -352 -357 0
-58 -353 -358 0
-58 -354 -359 0
-58 -355 -360 0
-58 -356 -361 0
-59 -352 -362 0
-59 -353 -363 0
-59 -354 -364 0
-59 -355 -365 0
-59 -356 -366 0
-60 -352 -367 0
-60 -353 -368 0
-60 -354 -369 0
-60 -355 -370 0
-60 -356 -371 0
-61 -352 -372 0
-61 -353 -373 0
-61 -354 -374 0
-61 -355 -375 0
-61 -356 -376 0
-62 -352 -377 0
-62 -353 -378 0
-62 -354 -379 0
-62 -355 -380 0
-62 -356 -381 0
-63 -352 -382 0
-63 -353 -383 0
-63 -354 -384 0
-63 -355 -385 0
-63 -356 -386 0
-64 -352 -387 0
-64 -353 -388 0
-64 -354 -389 0
-64 -355 -390 0
-64 -356 -391 0
-65 -352 -392 0
-65 -353 -393 0
-65 -354 -394 0
-65 -355 -395 0
-65 -356 -396 0
-66 -352 -397 0
-66 -353 -398 0
-66 -354 -399 0
-66 -355 -400 0
-66 -356 -401 0
-67 -352 -402 0
-67 -353 -403 0
-67 -354 -404 0
-67 -355 -405 0
-67 -356 -406 0
-68 -352 -407 0
-68 -353 -408 0
-68 -354 -409 0
-68 -355 -410 0
-68 -356 -411 0
-69 -352 -412 0
-69 -353 -413 0
-69 -354 -414 0
-69 -355 -415 0
-69 -356 -416 0
-70 -352 -417 0
-70 -353 -418 0
-70 -354 -419 0
-70 -355 -420 0
-70 -356 -421 0
-71 -352 -422 0
-71 -353 -423 0
-71 -354 -424 0
-71 -355 -425 0
-71 -356 -426 0
-72 -352 -427 0
-72 -353 -428 0
-72 -354 -429 0
-72 -355 -430 0
-72 -356 -431 0
-73 -352 -432 0
-73 -353 -433 0
-73 -354 -434 0
-73 -355 -435 0
-73 -356 -436 0
-74 -352 -437 0
-74 -353 -438 0
-74 -354 -439 0
-74 -355 -440 0
-74 -356 -441 0
-75 -357 -362 0
-75 -358 -363 0
-75 -359 -364 0
-75 -360 -365 0
-75 -361 -366 0
-76 -357 -367 0
-76 -358 -368 0
-76 -359 -369 0
-76 -360 -370 0
-76 -361 -371 0
-77 -357 -372 0
-77 -358 -373 0
-77 -359 -374 0
-77 -360 -375 0
-77 -361 -376 0
-78 -357 -377 0
-78 -358 -378 0
-78 -359 -379 0
-78 -360 -380 0
-78 -361 -381 0
-79 -357 -382 0
-79 -358 -383 0
-79 -359 -384 0
-79 -360 -385 0
-79 -361 -386 0
-80 -357 -387 0
-80 -358 -388 0
-80 -359 -389 0
-80 -360 -390 0
-80 -361 -391 0
-81 -357 -392 0
-81 -358 -393 0
-81 -359 -394 0
-81 -360 -395 0
-81 -361 -396 0
-82 -357 -397 0
-82 -358 -398 0
-82 -359 -399 0
-82 -360 -400 0
-82 -361 -401 0
-83 -357 -402 0
-83 -358 -403 0
-83 -359 -404 0
-83 -360 -405 0
-83 -361 -406 0
-84 -357 -407 0
-84 -358 -408 0
-84 -359 -409 0
-84 -360 -410 0
-84 -361 -411 0
-85 -357 -412 0
-85 -358 -413 0
-85 -359 -414 0
-85 -360 -415 0
-85 -361 -416 0
-86 -357 -417 0
-86 -358 -418 0
-86 -359 -419 0
-86 -360 -420 0
-86 -361 -421 0
-87 -357 -422 0
-87 -358 -423 0
-87 -359 -424 0
-87 -360 -425 0
-87 -361 -426 0
-88 -357 -427 0
-88 -358 -428 0
-88 -359 -429 0
-88 -360 -430 0
-88 -361 -431 0
-89 -357 -432 0
-89 -358 -433 0
-89 -359 -434 0
-89 -360 -435 0
-89 -361 -436 0
-90 -357 -437 0
-90 -358 -438 0
-90 -359 -439 0
-90 -360 -440 0
-90 -361 -441 0
-91 -362 -367 0
-91 -363 -368 0
-91 -364 -369 0
-91 -365 -370 0
-91 -366 -371 0
-92 -362 -372 0
-92 -363 -373 0
-92 -364 -374 0
-92 -365 -375 0
-92 -366 -376 0
-93 -362 -377 0
-93 -363 -378 0
-93 -364 -379 0
-93 -365 -380 0
-93 -366 -381 0
-94 -362 -382 0
-94 -363 -383 0
-94 -364 -384 0
-94 -365 -385 0
-94 -366 -386 0
-95 -362 -387 0
-95 -363 -388 0
-95 -364 -389 0
-95 -365 -390 0
-95 -366 -391 0
-96 -362 -392 0
-96 -363 -393 0
-96 -364 -394 0
-96 -365 -395 0
-96 -366 -396 0
-97 -362 -397 0
-97 -363 -398 0
-97 -364 -399 0
-97 -365 -400 0
-97 -366 -401 0
-98 -362 -402 0
-98 -363 -403 0
-98 -364 -404 0
-98 -365 -405 0
-98 -366 -406 0
-99 -362 -407 0
-99 -363 -408 0
-99 -364 -409 0
-99 -365 -410 0
-99 -366 -411 0
-100 -362 -412 0
-100 -363 -413 0
-100 -364 -414 0
-100 -365 -415 0
-100 -366 -416 0
-101 -362 -417 0
-101 -363 -418 0
-101 -364 -419 0
-101 -365 -420 0
-101 -366 -421 0
-102 -362 -422 0
-102 -363 -423 0
-102 -364 -424 0
-102 -365 -425 0
-102 -366 -426 0
-103 -362 -427 0
-103 -363 -428 0
-103 -364 -429 0
-103 -365 -430 0
-103 -366 -431 0
-104 -362 -432 0
-104 -363 -433 0
-104 -364 -434 0
-104 -365 -435 0
-104 -366 -436 0
-105 -362 -437 0
-105 -363 -438 0
-105 -364 -439 0
-105 -365 -440 0
-105 -366 -441 0
-106 -367 -372 0
-106 -368 -373 0
-106 -369 -374 0
-106 -370 -375 0
-106 -371 -376 0
-107 -367 -377 0
-107 -368 -378 0
-107 -369 -379 0
-107 -370 -380 0
-107 -371 -381 0
-108 -367 -382 0
-108 -368 -383 0
-108 -369 -384 0
-108 -370 -385 0
-108 -371 -386 0
-109 -367 -387 0
-109 -368 -388 0
-109 -369 -389 0
-109 -370 -390 0
-109 -371 -391 0
-110 -367 -392 0
-110 -368 -393 0
-110 -369 -394 0
-110 -370 -395 0
-110 -371 -396 0
-111 -367 -397 0
-111 -368 -398 0
-111 -369 -399 0
-111 -370 -400 0
-111 -371 -401 0
-112 -367 -402 0
-112 -368 -403 0
-112 -369 -404 0
-112 -370 -405 0
-112 -371 -406 0
-113 -367 -407 0
-113 -368 -408 0
-113 -369 -409 0
-113 -370 -410 0
-113 -371 -411 0
-114 -367 -412 0
-114 -368 -413 0
-114 -369 -414 0
-114 -370 -415 0
-114 -371 -416 0
-115 -367 -417 0
-115 -368 -418 0
-115 -369 -419 0
-115 -370 -420 0
-115 -371 -421 0
-116 -367 -422 0
-116 -368 -423 0
-116 -369 -424 0
-116 -370 -425 0
-116 -371 -426 0
-117 -367 -427 0
-117 -368 -428 0
-117 -369 -429 0
-117 -370 -430 0
-117 -371 -431 0
-118 -367 -432 0
-118 -368 -433 0
-118 -369 -434 0
-118 -370 -435 0
-118 -371 -436 0
-119 -367 -437 0
-119 -368 -438 0
-119 -369 -439 0
-119 -370 -440 0
-119 -371 -441 0
-120 -372 -377 0
-120 -373 -378 0
-120 -374 -379 0
-120 -375 -380 0
-120 -376 -381 0
-121 -372 -382 0
-121 -373 -383 0
-121 -374 -384 0
-121 -375 -385 0
-121 -376 -386 0
-122 -372 -387 0
-122 -373 -388 0
-122 -374 -389 0
-122 -375 -390 0
-122 -376 -391 0
-123 -372 -392 0
-123 -373 -393 0
-123 -374 -394 0
-123 -375 -395 0
-123 -376 -396 0
-124 -372 -397 0
-124 -373 -398 0
-124 -374 -399 0
-124 -375 -400 0
-124 -376 -401 0
-125 -372 -402 0
-125 -373 -403 0
-125 -374 -404 0
-125 -375 -405 0
-125 -376 -406 0
-126 -372 -407 0
-126 -373 -408 0
-126 -374 -409 0
-126 -375 -410 0
-126 -376 -411 0
-127 -372 -412 0
-127 -373 -413 0
-127 -374 -414 0
-127 -375 -415 0
-127 -376 -416 0
-128 -372 -417 0
-128 -373 -418 0
-128 -374 -419 0
-128 -375 -420 0
-128 -376 -421 0
-129 -372 -422 0
-129 -373 -423 0
-129 -374 -424 0
-129 -375 -425 0
-129 -376 -426 0
-130 -372 -427 0
-130 -373 -428 0
-130 -374 -429 0
-130 -375 -430 0
-130 -376 -431 0
-131 -372 -432 0
-131 -373 -433 0
-131 -374 -434 0
-131 -375 -435 0
-131 -376 -436 0
-132 -372 -437 0
-132 -373 -438 0
-132 -374 -439 0
-132 -375 -440 0
-132 -376 -441 0
-133 -377 -382 0
-133 -378 -383 0
-133 -379 -384 0
-133 -380 -385 0
-133 -381 -386 0
-134 -377 -387 0
-134 -378 -388 0
-134 -379 -389 0
-134 -380 -390 0
-134 -381 -391 0
-135 -377 -392 0
-135 -378 -393 0
-135 -379 -394 0
-135 -380 -395 0
-135 -381 -396 0
-136 -377 -397 0
-136 -378 -398 0
-136 -379 -399 0
-136 -380 -400 0
-136 -381 -401 0
-137 -377 -402 0
-137 -378 -403 0
-137 -379 -404 0
-137 -380 -405 0
-137 -381 -406 0
-138 -377 -407 0
-138 -378 -408 0
-138 -379 -409 0
-138 -380 -410 0
-138 -381 -411 0
-139 -377 -412 0
-139 -378 -413 0
-139 -379 -414 0
-139 -380 -415 0
-139 -381 -416 0
-140 -377 -417 0
-140 -378 -418 0
-140 -379 -419 0
-140 -380 -420 0
-140 -381 -421 0
-141 -377 -422 0
-141 -378 -423 0
-141 -379 -424 0
-141 -380 -425 0
-141 -381 -426 0
-142 -377 -427 0
-142 -378 -428 0
-142 -379 -429 0
-142 -380 -430 0
-142 -381 -431 0
-143 -377 -432 0
-143 -378 -433 0
-143 -379 -434 0
-143 -380 -435 0
-143 -381 -436 0
-144 -377 -437 0
-144 -378 -438 0
-144 -379 -439 0
-144 -380 -440 0
-144 -381 -441 0
-145 -382 -387 0
-145 -383 -388 0
-145 -384 -389 0
-145 -385 -390 0
-145 -386 -391 0
-146 -382 -392 0
-146 -383 -393 0
-146 -384 -394 0
-146 -385 -395 0
-146 -386 -396 0
-147 -382 -397 0
-147 -383 -398 0
-147 -384 -399 0
-147 -385 -400 0
-147 -386 -401 0
-148 -382 -402 0
-148 -383 -403 0
-148 -384 -404 0
-148 -385 -405 0
-148 -386 -406 0
-149 -382 -407 0
-149 -383 -408 0
-149 -384 -409 0
-149 -385 -410 0
-149 -386 -411 0
-150 -382 -412 0
-150 -383 -413 0
-150 -384 -414 0
-150 -385 -415 0
-150 -386 -416 0
-151 -382 -417 0
-151 -383 -418 0
-151 -384 -419 0
-151 -385 -420 0
-151 -386 -421 0
-152 -382 -422 0
-152 -383 -423 0
-152 -384 -424 0
-152 -385 -425 0
-152 -386 -426 0
-153 -382 -427 0
-153 -383 -428 0
-153 -384 -429 0
-153 -385 -430 0
-153 -386 -431 0
-154 -382 -432 0
-154 -383 -433 0
-154 -384 -434 0
-154 -385 -435 0
-154 -386 -436 0
-155 -382 -437 0
-155 -383 -438 0
-155 -384 -439 0
-155 -385 -440 0
-155 -386 -441 0
-156 -387 -392 0
-156 -388 -393 0
-156 -389 -394 0
-156 -390 -395 0
-156 -391 -396 0
-157 -387 -397 0
-157 -388 -398 0
-157 -389 -399 0
-157 -390 -400 0
-157 -391 -401 0
-158 -387 -402 0
-158 -388 -403 0
-158 -389 -404 0
-158 -390 -405 0
-158 -391 -406 0
-159 -387 -407 0
-159 -388 -408 0
-159 -389 -409 0
-159 -390 -410 0
-159 -391 -411 0
-160 -387 -412 0
-160 -388 -413 0
-160 -389 -414 0
-160 -390 -415 0
-160 -391 -416 0
-161 -387 -417 0
-161 -388 -418 0
-161 -389 -419 0
-161 -390 -420 0
-161 -391 -421 0
-162 -387 -422 0
-162 -388 -423 0
-162 -389 -424 0
-162 -390 -425 0
-162 -391 -426 0
-163 -387 -427 0
-163 -388 -428 0
-163 -389 -429 0
-163 -390 -430 0
-163 -391 -431 0
-164 -387 -432 0
-164 -388 -433 0
-164 -389 -434 0
-164 -390 -435 0
-164 -391 -436 0
-165 -387 -437 0
-165 -388 -438 0
-165 -389 -439 0
-165 -390 -440 0
-165 -391 -441 0
-166 -392 -397 0
-166 -393 -398 0
-166 -394 -399 0
-166 -395 -400 0
-166 -396 -401 0
-167 -392 -402 0
-167 -393 -403 0
-167 -394 -404 0
-167 -395 -405 0
-167 -396 -406 0
-168 -392 -407 0
-168 -393 -408 0
-168 -394 -409 0
-168 -395 -410 0
-168 -396 -411 0
-169 -392 -412 0
-169 -393 -413 0
-169 -394 -414 0
-169 -395 -415 0
-169 -396 -416 0
-170 -392 -417 0
-170 -393 -418 0
-170 -394 -419 0
-170 -395 -420 0
-170 -396 -421 0
-171 -392 -422 0
-171 -393 -423 0
-171 -394 -424 0
-171 -395 -425 0
-171 -396 -426 0
-172 -392 -427 0
-172 -393 -428 0
-172 -394 -429 0
-172 -395 -430 0
-172 -396 -431 0
-173 -392 -432 0
-173 -393 -433 0
-173 -394 -434 0
-173 -395 -435 0
-173 -396 -436 0
-174 -392 -437 0
-174 -393 -438 0
-174 -394 -439 0
-174 -395 -440 0
-174 -396 -441 0
-175 -397 -402 0
-175 -398 -403 0
-175 -399 -404 0
-175 -400 -405 0
-175 -401 -406 0
-176 -397 -407 0
-176 -398 -408 0
-176 -399 -409 0
-176 -400 -410 0
-176 -401 -411 0
-177 -397 -412 0
-177 -398 -413 0
-177 -399 -414 0
-177 -400 -415 0
-177 -401 -416 0
-178 -397 -417 0
-178 -398 -418 0
-178 -399 -419 0
-178 -400 -420 0
-178 -401 -421 0
-179 -397 -422 0
-179 -398 -423 0
-179 -399 -424 0
-179 -400 -425 0
-179 -401 -426 0
-180 -397 -427 0
-180 -398 -428 0
-180 -399 -429 0
-180 -400 -430 0
-180 -401 -431 0
-181 -397 -432 0
-181 -398 -433 0
-181 -399 -434 0
-181 -400 -435 0
-181 -401 -436 0
-182 -397 -437 0
-182 -398 -438 0
-182 -399 -439 0
-182 -400 -440 0
-182 -401 -441 0
-183 -402 -407 0
-183 -403 -408 0
-183 -404 -409 0
-183 -405 -410 0
-183 -406 -411 0
-184 -402 -412 0
-184 -403 -413 0
-184 -404 -414 0
-184 -405 -415 0
-184 -406 -416 0
-185 -402 -417 0
-185 -403 -418 0
-185 -404 -419 0
-185 -405 -420 0
-185 -406 -421 0
-186 -402 -422 0
-186 -403 -423 0
-186 -404 -424 0
-186 -405 -425 0
-186 -406 -426 0
-187 -402 -427 0
-187 -403 -428 0
-187 -404 -429 0
-187 -405 -430 0
-187 -406 -431 0
-188 -402 -432 0
-188 -403 -433 0
-188 -404 -434 0
-188 -405 -435 0
-188 -406 -436 0
-189 -402 -437 0
-189 -403 -438 0
-189 -404 -439 0
-189 -405 -440 0
-189 -406 -441 0
-190 -407 -412 0
-190 -408 -413 0
-190 -409 -414 0
-190 -410 -415 0
-190 -411 -416 0
-191 -407 -417 0
-191 -408 -418 0
-191 -409 -419 0
-191 -410 -420 0
-191 -411 -421 0
-192 -407 -422 0
-192 -408 -423 0
-192 -409 -424 0
-192 -410 -425 0
-192 -411 -426 0
-193 -407 -427 0
-193 -408 -428 0
-193 -409 -429 0
-193 -410 -430 0
-193 -411 -431 0
-194 -407 -432 0
-194 -408 -433 0
-194 -409 -434 0
-194 -410 -435 0
-194 -411 -436 0
-195 -407 -437 0
-195 -408 -438 0
-195 -409 -439 0
-195 -410 -440 0
-195 -411 -441 0
-196 -412 -417 0
-196 -413 -418 0
-196 -414 -419 0
-196 -415 -420 0
-196 -416 -421 0
-197 -412 -422 0
-197 -413 -423 0
-197 -414 -424 0
-197 -415 -425 0
-197 -416 -426 0
-198 -412 -427 0
-198 -413 -428 0
-198 -414 -429 0
-198 -415 -430 0
-198 -416 -431 0
-199 -412 -432 0
-199 -413 -433 0
-199 -414 -434 0
-199 -415 -435 0
-199 -416 -436 0
-200 -412 -437 0
-200 -413 -438 0
-200 -414 -439 0
-200 -415 -440 0
-200 -416 -441 0
-201 -417 -422 0
-201 -418 -423 0
-201 -419 -424 0
-201 -420 -425 0
-201 -421 -426 0
-202 -417 -427 0
-202 -418 -428 0
-202 -419 -429 0
-202 -420 -430 0
-202 -421 -431 0
-203 -417 -432 0
-203 -418 -433 0
-203 -419 -434 0
-203 -420 -435 0
-203 -421 -436 0
-204 -417 -437 0
-204 -418 -438 0
-204 -419 -439 0
-204 -420 -440 0
-204 -421 -441 0
-205 -422 -427 0
-205 -423 -428 0
-205 -424 -429 0
-205 -425 -430 0
-205 -426 -431 0
-206 -422 -432 0
-206 -423 -433 0
-206 -424 -434 0
-206 -425 -435 0
-206 -426 -436 0
-207 -422 -437 0
-207 -423 -438 0
-207 -424 -439 0
-207 -425 -440 0
-207 -426 -441 0
-208 -427 -432 0
-208 -428 -433 0
-208 -429 -434 0
-208 -430 -435 0
-208 -431 -436 0
-209 -427 -437 0
-209 -428 -438 0
-209 -429 -439 0
-209 -430 -440 0
-209 -431 -441 0
-210 -432 -437 0
-210 -433 -438 0
-210 -434 -439 0
-210 -435 -440 0
-210 -436 -441 0
442 0
-295 316 0
316 -442 443 0
-295 -442 443 0
-443 -296 317 0
317 -443 444 0
-296 -443 444 0
-444 -297 318 0
318 -444 445 0
-297 -444 445 0
-445 -298 319 0
319 -445 446 0
-298 -445 446 0
-446 -299 320 0
320 -446 447 0
-299 -446 447 0
-447 -300 321 0
321 -447 448 0
-300 -447 448 0
-448 -301 322 0
322 -448 449 0
-301 -448 449 0
-449 -302 323 0
323 -449 450 0
-302 -449 450 0
-450 -303 324 0
324 -450 451 0
-303 -450 451 0
-451 -304 325 0
325 -451 452 0
-304 -451 452 0
-452 -305 326 0
326 -452 453 0
-305 -452 453 0
-453 -306 327 0
327 -453 454 0
-306 -453 454 0
-454 -307 328 0
328 -454 455 0
-307 -454 455 0
-455 -308 329 0
329 -455 456 0
-308 -455 456 0
-456 -309 330 0
330 -456 457 0
-309 -456 457 0
-457 -310 331 0
331 -457 458 0
-310 -457 458 0
-458 -311 332 0
332 -458 459 0
-311 -458 459 0
-459 -312 333 0
333 -459 460 0
-312 -459 460 0
-460 -313 334 0
334 -460 461 0
-313 -460 461 0
-461 -314 335 0
335 -461 462 0
-314 -461 462 0
-462 -315 336 0
463 0
-274 295 0
295 -463 464 0
-274 -463 464 0
-464 -275 296 0
296 -464 465 0
-275 -464 465 0
-465 -276 297 0
297 -465 466 0
-276 -465 466 0
-466 -277 298 0
298 -466 467 0
-277 -466 467 0
-467 -278 299 0
299 -467 468 0
-278 -467 468 0
-468 -279 300 0
300 -468 469 0
-279 -468 469 0
-469 -280 301 0
301 -469 470 0
-280 -469 470 0
-470 -281 302 0
302 -470 471 0
-281 -470 471 0
-471 -282 303 0
303 -471 472 0
-282 -471 472 0
-472 -283 304 0
304 -472 473 0
-283 -472 473 0
-473 -284 305 0
305 -473 474 0
-284 -473 474 0
-474 -285 306 0
306 -474 475 0
-285 -474 475 0
-475 -286 307 0
307 -475 476 0
-286 -475 476 0
-476 -287 308 0
308 -476 477 0
-287 -476 477 0
-477 -288 309 0
309 -477 478 0
-288 -477 478 0
-478 -289 310 0
310 -478 479 0
-289 -478 479 0
-479 -290 311 0
311 -479 480 0
-290 -479 480 0
-480 -291 312 0
312 -480 481 0
-291 -480 481 0
-481 -292 313 0
313 -481 482 0
-292 -481 482 0
-482 -293 314 0
314 -482 483 0
-293 -482 483 0
-483 -294 315 0
484 0
-253 274 0
274 -484 485 0
-253 -484 485 0
-485 -254 275 0
275 -485 486 0
-254 -485 486 0
-486 -255 276 0
276 -486 487 0
-255 -486 487 0
-487 -256 277 0
277 -487 488 0
-256 -487 488 0
-488 -257 278 0
278 -488 489 0
-257 -488 489 0
-489 -258 279 0
279 -489 490 0
-258 -489 490 0
-490 -259 280 0
280 -490 491 0
-259 -490 491 0
-491 -260 281 0
281 -491 492 0
-260 -491 492 0
-492 -261 282 0
282 -492 493 0
-261 -492 493 0
-493 -262 283 0
283 -493 494 0
-262 -493 494 0
-494 -263 284 0
284 -494 495 0
-263 -494 495 0
-495 -264 285 0
285 -495 496 0
-264 -495 496 0
-496 -265 286 0
286 -496 497 0
-265 -496 497 0
-497 -266 287 0
287 -497 498 0
-266 -497 498 0
-498 -267 288 0
288 -498 499 0
-267 -498 499 0
-499 -268 289 0
289 -499 500 0
-268 -499 500 0
-500 -269 290 0
290 -500 501 0
-269 -500 501 0
-501 -270 291 0
291 -501 502 0
-270 -501 502 0
-502 -271 292 0
292 -502 503 0
-271 -502 503 0
-503 -272 293 0
293 -503 504 0
-272 -503 504 0
-504 -273 294 0
505 0
-232 253 0
253 -505 506 0
-232 -505 506 0
-506 -233 254 0
254 -506 507 0
-233 -506 507 0
-507 -234 255 0
255 -507 508 0
-234 -507 508 0
-508 -235 256 0
256 -508 509 0
-235 -508 509 0
-509 -236 257 0
257 -509 510 0
-236 -509 510 0
-510 -237 258 0
258 -510 511 0
-237 -510 511 0
-511 -238 259 0
259 -511 512 0
-238 -511 512 0
-512 -239 260 0
260 -512 513 0
-239 -512 513 0
-513 -240 261 0
261 -513 514 0
-240 -513 514 0
-514 -241 262 0
262 -514 515 0
-241 -514 515 0
-515 -242 263 0
263 -515 516 0
-242 -515 516 0
-516 -243 264 0
264 -516 517 0
-243 -516 517 0
-517 -244 265 0
265 -517 518 0
-244 -517 518 0
-518 -245 266 0
266 -518 519 0
-245 -518 519 0
-519 -246 267 0
267 -519 520 0
-246 -519 520 0
-520 -247 268 0
268 -520 521 0
-247 -520 521 0
-521 -248 269 0
269 -521 522 0
-248 -521 522 0
-522 -249 270 0
270 -522 523 0
-249 -522 523 0
-523 -250 271 0
271 -523 524 0
-250 -523 524 0
-524 -251 272 0
272 -524 525 0
-251 -524 525 0
-525 -252 273 0
526 0
-211 232 0
232 -526 527 0
-211 -526 527 0
-527 -212 233 0
233 -527 528 0
-212 -527 528 0
-528 -213 234 0
234 -528 529 0
-213 -528 529 0
-529 -214 235 0
235 -529 530 0
-214 -529 530 0
-530 -215 236 0
236 -530 531 0
-215 -530 531 0
-531 -216 237 0
237 -531 532 0
-216 -531 532 0
-532 -217 238 0
238 -532 533 0
-217 -532 533 0
-533 -218 239 0
239 -533 534 0
-218 -533 534 0
-534 -219 240 0
240 -534 535 0
-219 -534 535 0
-535 -220 241 0
241 -535 536 0
-220 -535 536 0
-536 -221 242 0
242 -536 537 0
-221 -536 537 0
-537 -222 243 0
243 -537 538 0
-222 -537 538 0
-538 -223 244 0
244 -538 539 0
-223 -538 539 0
-539 -224 245 0
245 -539 540 0
-224 -539 540 0
-540 -225 246 0
246 -540 541 0
-225 -540 541 0
-541 -226 247 0
247 -541 542 0
-226 -541 542 0
-542 -227 248 0
248 -542 543 0
-227 -542 543 0
-543 -228 249 0
249 -543 544 0
-228 -543 544 0
-544 -229 250 0
250 -544 545 0
-229 -544 545 0
-545 -230 251 0
251 -545 546 0
-230 -545 546 0
-546 -231 252 0
547 0
-340 341 0
341 -547 548 0
-340 -547 548 0
-548 -345 346 0
346 -548 549 0
-345 -548 549 0
-549 -350 351 0
351 -549 550 0
-350 -549 550 0
-550 -355 356 0
356 -550 551 0
-355 -550 551 0
-551 -360 361 0
361 -551 552 0
-360 -551 552 0
-552 -365 366 0
366 -552 553 0
-365 -552 553 0
-553 -370 371 0
371 -553 554 0
-370 -553 554 0
-554 -375 376 0
376 -554 555 0
-375 -554 555 0
-555 -380 381 0
381 -555 556 0
-380 -555 556 0
-556 -385 386 0
386 -556 557 0
-385 -556 557 0
-557 -390 391 0
391 -557 558 0
-390 -557 558 0
-558 -395 396 0
396 -558 559 0
-395 -558 559 0
-559 -400 401 0
401 -559 560 0
-400 -559 560 0
-560 -405 406 0
406 -560 561 0
-405 -560 561 0
-561 -410 411 0
411 -561 562 0
-410 -561 562 0
-562 -415 416 0
416 -562 563 0
-415 -562 563 0
-563 -420 421 0
421 -563 564 0
-420 -563 564 0
-564 -425 426 0
426 -564 565 0
-425 -564 565 0
-565 -430 431 0
431 -565 566 0
-430 -565 566 0
-566 -435 436 0
436 -566 567 0
-435 -566 567 0
-567 -440 441 0
568 0
-339 340 0
340 -568 569 0
-339 -568 569 0
-569 -344 345 0
345 -569 570 0
-344 -569 570 0
-570 -349 350 0
350 -570 571 0
-349 -570 571 0
-571 -354 355 0
355 -571 572 0
-354 -571 572 0
-572 -359 360 0
360 -572 573 0
-359 -572 573 0
-573 -364 365 0
365 -573 574 0
-364 -573 574 0
-574 -369 370 0
370 -574 575 0
-369 -574 575 0
-575 -374 375 0
375 -575 576 0
-374 -575 576 0
-576 -379 380 0
380 -576 577 0
-379 -576 577 0
-577 -384 385 0
385 -577 578 0
-384 -577 578 0
-578 -389 390 0
390 -578 579 0
-389 -578 579 0
-579 -394 395 0
395 -579 580 0
-394 -579 580 0
-580 -399 400 0
400 -580 581 0
-399 -580 581 0
-581 -404 405 0
405 -581 582 0
-404 -581 582 0
-582 -409 410 0
410 -582 583 0
-409 -582 583 0
-583 -414 415 0
415 -583 584 0
-414 -583 584 0
-584 -419 420 0
420 -584 585 0
-419 -584 585 0
-585 -424 425 0
425 -585 586 0
-424 -585 586 0
-586 -429 430 0
430 -586 587 0
-429 -586 587 0
-587 -434 435 0
435 -587 588 0
-434 -587 588 0
-588 -439 440 0
589 0
-338 339 0
339 -589 590 0
-338 -589 590 0
-590 -343 344 0
344 -590 591 0
-343 -590 591 0
-591 -348 349 0
349 -591 592 0
-348 -591 592 0
-592 -353 354 0
354 -592 593 0
-353 -592 593 0
-593 -358 359 0
359 -593 594 0
-358 -593 594 0
-594 -363 364 0
364 -594 595 0
-363 -594 595 0
-595 -368 369 0
369 -595 596 0
-368 -595 596 0
-596 -373 374 0
374 -596 597 0
-373 -596 597 0
-597 -378 379 0
379 -597 598 0
-378 -597 598 0
-598 -383 384 0
384 -598 599 0
-383 -598 599 0
-599 -388 389 0
389 -599 600 0
-388 -599 600 0
-600 -393 394 0
394 -600 601 0
-393 -600 601 0
-601 -398 399 0
399 -601 602 0
-398 -601 602 0
-602 -403 404 0
404 -602 603 0
-403 -602 603 0
-603 -408 409 0
409 -603 604 0
-408 -603 604 0
-604 -413 414 0
414 -604 605 0
-413 -604 605 0
-605 -418 419 0
419 -605 606 0
-418 -605 606 0
-606 -423 424 0
424 -606 607 0
-423 -606 607 0
-607 -428 429 0
429 -607 608 0
-428 -607 608 0
-608 -433 434 0
434 -608 609 0
-433 -608 609 0
-609 -438 439 0
610 0
-337 338 0
338 -610 611 0
-337 -610 611 0
-611 -342 343 0
343 -611 612 0
-342 -611 612 0
-612 -347 348 0
348 -612 613 0
-347 -612 613 0
-613 -352 353 0
353 -613 614 0
-352 -613 614 0
-614 -357 358 0
358 -614 615 0
-357 -614 615 0
-615 -362 363 0
363 -615 616 0
-362 -615 616 0
-616 -367 368 0
368 -616 617 0
-367 -616 617 0
-617 -372 373 0
373 -617 618 0
-372 -617 618 0
-618 -377 378 0
378 -618 619 0
-377 -618 619 0
-619 -382 383 0
383 -619 620 0
-382 -619 620 0
-620 -387 388 0
388 -620 621 0
-387 -620 621 0
-621 -392 393 0
393 -621 622 0
-392 -621 622 0
-622 -397 398 0
398 -622 623 0
-397 -622 623 0
-623 -402 403 0
403 -623 624 0
-402 -623 624 0
-624 -407 408 0
408 -624 625 0
-407 -624 625 0
-625 -412 413 0
413 -625 626 0
-412 -625 626 0
-626 -417 418 0
418 -626 627 0
-417 -626 627 0
-627 -422 423 0
423 -627 628 0
-422 -627 628 0
-628 -427 428 0
428 -628 629 0
-427 -628 629 0
-629 -432 433 0
433 -629 630 0
-432 -629 630 0
-630 -437 438 0
631 0
-211 212 0
212 -631 632 0
-211 -631 632 0
-632 -212 211 0
211 -632 633 0
-212 -632 633 0
-633 -232 233 0
233 -633 634 0
-232 -633 634 0
-634 -233 232 0
232 -634 635 0
-233 -634 635 0
-635 -253 254 0
254 -635 636 0
-253 -635 636 0
-636 -254 253 0
253 -636 637 0
-254 -636 637 0
-637 -274 275 0
275 -637 638 0
-274 -637 638 0
-638 -275 274 0
274 -638 639 0
-275 -638 639 0
-639 -295 296 0
296 -639 640 0
-295 -639 640 0
-640 -296 295 0
295 -640 641 0
-296 -640 641 0
-641 -316 317 0
317 -641 642 0
-316 -641 642 0
-642 -317 316 0
316 -642 643 0
-317 -642 643 0
-643 -337 342 0
342 -643 644 0
-337 -643 644 0
-644 -342 337 0
337 -644 645 0
-342 -644 645 0
-645 -338 343 0
343 -645 646 0
-338 -645 646 0
-646 -343 338 0
338 -646 647 0
-343 -646 647 0
-647 -339 344 0
344 -647 648 0
-339 -647 648 0
-648 -344 339 0
339 -648 649 0
-344 -648 649 0
-649 -340 345 0
345 -649 650 0
-340 -649 650 0
-650 -345 340 0
340 -650 651 0
-345 -650 651 0
-651 -341 346 0
346 -651 652 0
-341 -651 652 0
-652 -346 341 0
341 -652 653 0
-346 -652 653 0
-653 -2 21 0
21 -653 654 0
-2 -653 654 0
-654 -3 22 0
22 -654 655 0
-3 -654 655 0
-655 -4 23 0
23 -655 656 0
-4 -655 656 0
-656 -5 24 0
24 -656 657 0
-5 -656 657 0
-657 -6 25 0
25 -657 658 0
-6 -657 658 0
-658 -7 26 0
26 -658 659 0
-7 -658 659 0
-659 -8 27 0
27 -659 660 0
-8 -659 660 0
-660 -9 28 0
661 0
-212 213 0
213 -661 662 0
-212 -661 662 0
-662 -213 212 0
212 -662 663 0
-213 -662 663 0
-663 -233 234 0
234 -663 664 0
-233 -663 664 0
-664 -234 233 0
233 -664 665 0
-234 -664 665 0
-665 -254 255 0
255 -665 666 0
-254 -665 666 0
-666 -255 254 0
254 -666 667 0
-255 -666 667 0
-667 -275 276 0
276 -667 668 0
-275 -667 668 0
-668 -276 275 0
275 -668 669 0
-276 -668 669 0
-669 -296 297 0
297 -669 670 0
-296 -669 670 0
-670 -297 296 0
296 -670 671 0
-297 -670 671 0
-671 -317 318 0
318 -671 672 0
-317 -671 672 0
-672 -318 317 0
317 -672 673 0
-318 -672 673 0
-673 -342 347 0
347 -673 674 0
-342 -673 674 0
-674 -347 342 0
342 -674 675 0
-347 -674 675 0
-675 -343 348 0
348 -675 676 0
-343 -675 676 0
-676 -348 343 0
343 -676 677 0
-348 -676 677 0
-677 -344 349 0
349 -677 678 0
-344 -677 678 0
-678 -349 344 0
344 -678 679 0
-349 -678 679 0
-679 -345 350 0
350 -679 680 0
-345 -679 680 0
-680 -350 345 0
345 -680 681 0
-350 -680 681 0
-681 -346 351 0
351 -681 682 0
-346 -681 682 0
-682 -351 346 0
346 -682 683 0
-351 -682 683 0
-683 -1 2 0
2 -683 684 0
-1 -683 684 0
-684 -2 1 0
1 -684 685 0
-2 -684 685 0
-685 -22 40 0
40 -685 686 0
-22 -685 686 0
-686 -23 41 0
41 -686 687 0
-23 -686 687 0
-687 -24 42 0
42 -687 688 0
-24 -687 688 0
-688 -25 43 0
43 -688 689 0
-25 -688 689 0
-689 -26 44 0
44 -689 690 0
-26 -689 690 0
-690 -27 45 0
691 0
-213 214 0
214 -691 692 0
-213 -691 692 0
-692 -214 213 0
213 -692 693 0
-214 -692 693 0
-693 -234 235 0
235 -693 694 0
-234 -693 694 0
-694 -235 234 0
234 -694 695 0
-235 -694 695 0
-695 -255 256 0
256 -695 696 0
-255 -695 696 0
-696 -256 255 0
255 -696 697 0
-256 -696 697 0
-697 -276 277 0
277 -697 698 0
-276 -697 698 0
-698 -277 276 0
276 -698 699 0
-277 -698 699 0
-699 -297 298 0
298 -699 700 0
-297 -699 700 0
-700 -298 297 0
297 -700 701 0
-298 -700 701 0
-701 -318 319 0
319 -701 702 0
-318 -701 702 0
-702 -319 318 0
318 -702 703 0
-319 -702 703 0
-703 -347 352 0
352 -703 704 0
-347 -703 704 0
-704 -352 347 0
347 -704 705 0
-352 -704 705 0
-705 -348 353 0
353 -705 706 0
-348 -705 706 0
-706 -353 348 0
348 -706 707 0
-353 -706 707 0
-707 -349 354 0
354 -707 708 0
-349 -707 708 0
-708 -354 349 0
349 -708 709 0
-354 -708 709 0
-709 -350 355 0
355 -709 710 0
-350 -709 710 0
-710 -355 350 0
350 -710 711 0
-355 -710 711 0
-711 -351 356 0
356 -711 712 0
-351 -711 712 0
-712 -356 351 0
351 -712 713 0
-356 -712 713 0
-713 -2 3 0
3 -713 714 0
-2 -713 714 0
-714 -3 2 0
2 -714 715 0
-3 -714 715 0
-715 -21 22 0
22 -715 716 0
-21 -715 716 0
-716 -22 21 0
21 -716 717 0
-22 -716 717 0
-717 -41 58 0
58 -717 718 0
-41 -717 718 0
-718 -42 59 0
59 -718 719 0
-42 -718 719 0
-719 -43 60 0
60 -719 720 0
-43 -719 720 0
-720 -44 61 0
721 0
-214 215 0
215 -721 722 0
-214 -721 722 0
-722 -215 214 0
214 -722 723 0
-215 -722 723 0
-723 -235 236 0
236 -723 724 0
-235 -723 724 0
-724 -236 235 0
235 -724 725 0
-236 -724 725 0
-725 -256 257 0
257 -725 726 0
-256 -725 726 0
-726 -257 256 0
256 -726 727 0
-257 -726 727 0
-727 -277 278 0
278 -727 728 0
-277 -727 728 0
-728 -278 277 0
277 -728 729 0
-278 -728 729 0
-729 -298 299 0
299 -729 730 0
-298 -729 730 0
-730 -299 298 0
298 -730 731 0
-299 -730 731 0
-731 -319 320 0
320 -731 732 0
-319 -731 732 0
-732 -320 319 0
319 -732 733 0
-320 -732 733 0
-733 -352 357 0
357 -733 734 0
-352 -733 734 0
-734 -357 352 0
352 -734 735 0
-357 -734 735 0
-735 -353 358 0
358 -735 736 0
-353 -735 736 0
-736 -358 353 0
353 -736 737 0
-358 -736 737 0
-737 -354 359 0
359 -737 738 0
-354 -737 738 0
-738 -359 354 0
354 -738 739 0
-359 -738 739 0
-739 -355 360 0
360 -739 740 0
-355 -739 740 0
-740 -360 355 0
355 -740 741 0
-360 -740 741 0
-741 -356 361 0
361 -741 742 0
-356 -741 742 0
-742 -361 356 0
356 -742 743 0
-361 -742 743 0
-743 -3 4 0
4 -743 744 0
-3 -743 744 0
-744 -4 3 0
3 -744 745 0
-4 -744 745 0
-745 -22 23 0
23 -745 746 0
-22 -745 746 0
-746 -23 22 0
22 -746 747 0
-23 -746 747 0
-747 -40 41 0
41 -747 748 0
-40 -747 748 0
-748 -41 40 0
40 -748 749 0
-41 -748 749 0
-749 -59 75 0
75 -749 750 0
-59 -749 750 0
-750 -60 76 0
751 0
-215 216 0
216 -751 752 0
-215 -751 752 0
-752 -216 215 0
215 -752 753 0
-216 -752 753 0
-753 -236 237 0
237 -753 754 0
-236 -753 754 0
-754 -237 236 0
236 -754 755 0
-237 -754 755 0
-755 -257 258 0
258 -755 756 0
-257 -755 756 0
-756 -258 257 0
257 -756 757 0
-258 -756 757 0
-757 -278 279 0
279 -757 758 0
-278 -757 758 0
-758 -279 278 0
278 -758 759 0
-279 -758 759 0
-759 -299 300 0
300 -759 760 0
-299 -759 760 0
-760 -300 299 0
299 -760 761 0
-300 -760 761 0
-761 -320 321 0
321 -761 762 0
-320 -761 762 0
-762 -321 320 0
320 -762 763 0
-321 -762 763 0
-763 -357 362 0
362 -763 764 0
-357 -763 764 0
-764 -362 357 0
357 -764 765 0
-362 -764 765 0
-765 -358 363 0
363 -765 766 0
-358 -765 766 0
-766 -363 358 0
358 -766 767 0
-363 -766 767 0
-767 -359 364 0
364 -767 768 0
-359 -767 768 0
-768 -364 359 0
359 -768 769 0
-364 -768 769 0
-769 -360 365 0
365 -769 770 0
-360 -769 770 0
-770 -365 360 0
360 -770 771 0
-365 -770 771 0
-771 -361 366 0
366 -771 772 0
-361 -771 772 0
-772 -366 361 0
361 -772 773 0
-366 -772 773 0
-773 -4 5 0
5 -773 774 0
-4 -773 774 0
-774 -5 4 0
4 -774 775 0
-5 -774 775 0
-775 -23 24 0
24 -775 776 0
-23 -775 776 0
-776 -24 23 0
23 -776 777 0
-24 -776 777 0
-777 -41 42 0
42 -777 778 0
-41 -777 778 0
-778 -42 41 0
41 -778 779 0
-42 -778 779 0
-779 -58 59 0
59 -779 780 0
-58 -779 780 0
-780 -59 58 0
781 0
-216 217 0
217 -781 782 0
-216 -781 782 0
-782 -217 216 0
216 -782 783 0
-217 -782 783 0
-783 -237 238 0
238 -783 784 0
-237 -783 784 0
-784 -238 237 0
237 -784 785 0
-238 -784 785 0
-785 -258 259 0
259 -785 786 0
-258 -785 786 0
-786 -259 258 0
258 -786 787 0
-259 -786 787 0
-787 -279 280 0
280 -787 788 0
-279 -787 788 0
-788 -280 279 0
279 -788 789 0
-280 -788 789 0
-789 -300 301 0
301 -789 790 0
-300 -789 790 0
-790 -301 300 0
300 -790 791 0
-301 -790 791 0
-791 -321 322 0
322 -791 792 0
-321 -791 792 0
-792 -322 321 0
321 -792 793 0
-322 -792 793 0
-793 -362 367 0
367 -793 794 0
-362 -793 794 0
-794 -367 362 0
362 -794 795 0
-367 -794 795 0
-795 -363 368 0
368 -795 796 0
-363 -795 796 0
-796 -368 363 0
363 -796 797 0
-368 -796 797 0
-797 -364 369 0
369 -797 798 0
-364 -797 798 0
-798 -369 364 0
364 -798 799 0
-369 -798 799 0
-799 -365 370 0
370 -799 800 0
-365 -799 800 0
-800 -370 365 0
365 -800 801 0
-370 -800 801 0
-801 -366 371 0
371 -801 802 0
-366 -801 802 0
-802 -371 366 0
366 -802 803 0
-371 -802 803 0
-803 -5 6 0
6 -803 804 0
-5 -803 804 0
-804 -6 5 0
5 -804 805 0
-6 -804 805 0
-805 -24 25 0
25 -805 806 0
-24 -805 806 0
-806 -25 24 0
24 -806 807 0
-25 -806 807 0
-807 -42 43 0
43 -807 808 0
-42 -807 808 0
-808 -43 42 0
42 -808 809 0
-43 -808 809 0
-809 -59 60 0
60 -809 810 0
-59 -809 810 0
-810 -60 59 0
811 0
-217 218 0
218 -811 812 0
-217 -811 812 0
-812 -218 217 0
217 -812 813 0
-218 -812 813 0
-813 -238 239 0
239 -813 814 0
-238 -813 814 0
-814 -239 238 0
238 -814 815 0
-239 -814 815 0
-815 -259 260 0
260 -815 816 0
-259 -815 816 0
-816 -260 259 0
259 -816 817 0
-260 -816 817 0
-817 -280 281 0
281 -817 818 0
-280 -817 818 0
-818 -281 280 0
280 -818 819 0
-281 -818 819 0
-819 -301 302 0
302 -819 820 0
-301 -819 820 0
-820 -302 301 0
301 -820 821 0
-302 -820 821 0
-821 -322 323 0
323 -821 822 0
-322 -821 822 0
-822 -323 322 0
322 -822 823 0
-323 -822 823 0
-823 -367 372 0
372 -823 824 0
-367 -823 824 0
-824 -372 367 0
367 -824 825 0
-372 -824 825 0
-825 -368 373 0
373 -825 826 0
-368 -825 826 0
-826 -373 368 0
368 -826 827 0
-373 -826 827 0
-827 -369 374 0
374 -827 828 0
-369 -827 828 0
-828 -374 369 0
369 -828 829 0
-374 -828 829 0
-829 -370 375 0
375 -829 830 0
-370 -829 830 0
-830 -375 370 0
370 -830 831 0
-375 -830 831 0
-831 -371 376 0
376 -831 832 0
-371 -831 832 0
-832 -376 371 0
371 -832 833 0
-376 -832 833 0
-833 -6 7 0
7 -833 834 0
-6 -833 834 0
-834 -7 6 0
6 -834 835 0
-7 -834 835 0
-835 -25 26 0
26 -835 836 0
-25 -835 836 0
-836 -26 25 0
25 -836 837 0
-26 -836 837 0
-837 -43 44 0
44 -837 838 0
-43 -837 838 0
-838 -44 43 0
43 -838 839 0
-44 -838 839 0
-839 -60 61 0
61 -839 840 0
-60 -839 840 0
-840 -61 60 0
841 0
-218 219 0
219 -841 842 0
-218 -841 842 0
-842 -219 218 0
218 -842 843 0
-219 -842 843 0
-843 -239 240 0
240 -843 844 0
-239 -843 844 0
-844 -240 239 0
239 -844 845 0
-240 -844 845 0
-845 -260 261 0
261 -845 846 0
-260 -845 846 0
-846 -261 260 0
260 -846 847 0
-261 -846 847 0
-847 -281 282 0
282 -847 848 0
-281 -847 848 0
-848 -282 281 0
281 -848 849 0
-282 -848 849 0
-849 -302 303 0
303 -849 850 0
-302 -849 850 0
-850 -303 302 0
302 -850 851 0
-303 -850 851 0
-851 -323 324 0
324 -851 852 0
-323 -851 852 0
-852 -324 323 0
323 -852 853 0
-324 -852 853 0
-853 -372 377 0
377 -853 854 0
-372 -853 854 0
-854 -377 372 0
372 -854 855 0
-377 -854 855 0
-855 -373 378 0
378 -855 856 0
-373 -855 856 0
-856 -378 373 0
373 -856 857 0
-378 -856 857 0
-857 -374 379 0
379 -857 858 0
-374 -857 858 0
-858 -379 374 0
374 -858 859 0
-379 -858 859 0
-859 -375 380 0
380 -859 860 0
-375 -859 860 0
-860 -380 375 0
375 -860 861 0
-380 -860 861 0
-861 -376 381 0
381 -861 862 0
-376 -861 862 0
-862 -381 376 0
376 -862 863 0
-381 -862 863 0
-863 -7 8 0
8 -863 864 0
-7 -863 864 0
-864 -8 7 0
7 -864 865 0
-8 -864 865 0
-865 -26 27 0
27 -865 866 0
-26 -865 866 0
-866 -27 26 0
26 -866 867 0
-27 -866 867 0
-867 -44 45 0
45 -867 868 0
-44 -867 868 0
-868 -45 44 0
44 -868 869 0
-45 -868 869 0
-869 -61 62 0
62 -869 870 0
-61 -869 870 0
-870 -62 61 0
871 0
-219 220 0
220 -871 872 0
-219 -871 872 0
-872 -220 219 0
219 -872 873 0
-220 -872 873 0
-873 -240 241 0
241 -873 874 0
-240 -873 874 0
-874 -241 240 0
240 -874 875 0
-241 -874 875 0
-875 -261 262 0
262 -875 876 0
-261 -875 876 0
-876 -262 261 0
261 -876 877 0
-262 -876 877 0
-877 -282 283 0
283 -877 878 0
-282 -877 878 0
-878 -283 282 0
282 -878 879 0
-283 -878 879 0
-879 -303 304 0
304 -879 880 0
-303 -879 880 0
-880 -304 303 0
303 -880 881 0
-304 -880 881 0
-881 -324 325 0
325 -881 882 0
-324 -881 882 0
-882 -325 324 0
324 -882 883 0
-325 -882 883 0
-883 -377 382 0
382 -883 884 0
-377 -883 884 0
-884 -382 377 0
377 -884 885 0
-382 -884 885 0
-885 -378 383 0
383 -885 886 0
-378 -885 886 0
-886 -383 378 0
378 -886 887 0
-383 -886 887 0
-887 -379 384 0
384 -887 888 0
-379 -887 888 0
-888 -384 379 0
379 -888 889 0
-384 -888 889 0
-889 -380 385 0
385 -889 890 0
-380 -889 890 0
-890 -385 380 0
380 -890 891 0
-385 -890 891 0
-891 -381 386 0
386 -891 892 0
-381 -891 892 0
-892 -386 381 0
381 -892 893 0
-386 -892 893 0
-893 -8 9 0
9 -893 894 0
-8 -893 894 0
-894 -9 8 0
8 -894 895 0
-9 -894 895 0
-895 -27 28 0
28 -895 896 0
-27 -895 896 0
-896 -28 27 0
27 -896 897 0
-28 -896 897 0
-897 -45 46 0
46 -897 898 0
-45 -897 898 0
-898 -46 45 0
45 -898 899 0
-46 -898 899 0
-899 -62 63 0
63 -899 900 0
-62 -899 900 0
-900 -63 62 0
901 0
-220 221 0
221 -901 902 0
-220 -901 902 0
-902 -221 220 0
220 -902 903 0
-221 -902 903 0
-903 -241 242 0
242 -903 904 0
-241 -903 904 0
-904 -242 241 0
241 -904 905 0
-242 -904 905 0
-905 -262 263 0
263 -905 906 0
-262 -905 906 0
-906 -263 262 0
262 -906 907 0
-263 -906 907 0
-907 -283 284 0
284 -907 908 0
-283 -907 908 0
-908 -284 283 0
283 -908 909 0
-284 -908 909 0
-909 -304 305 0
305 -909 910 0
-304 -909 910 0
-910 -305 304 0
304 -910 911 0
-305 -910 911 0
-911 -325 326 0
326 -911 912 0
-325 -911 912 0
-912 -326 325 0
325 -912 913 0
-326 -912 913 0
-913 -382 387 0
387 -913 914 0
-382 -913 914 0
-914 -387 382 0
382 -914 915 0
-387 -914 915 0
-915 -383 388 0
388 -915 916 0
-383 -915 916 0
-916 -388 383 0
383 -916 917 0
-388 -916 917 0
-917 -384 389 0
389 -917 918 0
-384 -917 918 0
-918 -389 384 0
384 -918 919 0
-389 -918 919 0
-919 -385 390 0
390 -919 920 0
-385 -919 920 0
-920 -390 385 0
385 -920 921 0
-390 -920 921 0
-921 -386 391 0
391 -921 922 0
-386 -921 922 0
-922 -391 386 0
386 -922 923 0
-391 -922 923 0
-923 -9 10 0
10 -923 924 0
-9 -923 924 0
-924 -10 9 0
9 -924 925 0
-10 -924 925 0
-925 -28 29 0
29 -925 926 0
-28 -925 926 0
-926 -29 28 0
28 -926 927 0
-29 -926 927 0
-927 -46 47 0
47 -927 928 0
-46 -927 928 0
-928 -47 46 0
46 -928 929 0
-47 -928 929 0
-929 -63 64 0
64 -929 930 0
-63 -929 930 0
-930 -64 63 0
931 0
-221 222 0
222 -931 932 0
-221 -931 932 0
-932 -222 221 0
221 -932 933 0
-222 -932 933 0
-933 -242 243 0
243 -933 934 0
-242 -933 934 0
-934 -243 242 0
242 -934 935 0
-243 -934 935 0
-935 -263 264 0
264 -935 936 0
-263 -935 936 0
-936 -264 263 0
263 -936 937 0
-264 -936 937 0
-937 -284 285 0
285 -937 938 0
-284 -937 938 0
-938 -285 284 0
284 -938 939 0
-285 -938 939 0
-939 -305 306 0
306 -939 940 0
-305 -939 940 0
-940 -306 305 0
305 -940 941 0
-306 -940 941 0
-941 -326 327 0
327 -941 942 0
-326 -941 942 0
-942 -327 326 0
326 -942 943 0
-327 -942 943 0
-943 -387 392 0
392 -943 944 0
-387 -943 944 0
-944 -392 387 0
387 -944 945 0
-392 -944 945 0
-945 -388 393 0
393 -945 946 0
-388 -945 946 0
-946 -393 388 0
388 -946 947 0
-393 -946 947 0
-947 -389 394 0
394 -947 948 0
-389 -947 948 0
-948 -394 389 0
389 -948 949 0
-394 -948 949 0
-949 -390 395 0
395 -949 950 0
-390 -949 950 0
-950 -395 390 0
390 -950 951 0
-395 -950 951 0
-951 -391 396 0
396 -951 952 0
-391 -951 952 0
-952 -396 391 0
391 -952 953 0
-396 -952 953 0
-953 -10 11 0
11 -953 954 0
-10 -953 954 0
-954 -11 10 0
10 -954 955 0
-11 -954 955 0
-955 -29 30 0
30 -955 956 0
-29 -955 956 0
-956 -30 29 0
29 -956 957 0
-30 -956 957 0
-957 -47 48 0
48 -957 958 0
-47 -957 958 0
-958 -48 47 0
47 -958 959 0
-48 -958 959 0
-959 -64 65 0
65 -959 960 0
-64 -959 960 0
-960 -65 64 0
961 0
-222 223 0
223 -961 962 0
-222 -961 962 0
-962 -223 222 0
222 -962 963 0
-223 -962 963 0
-963 -243 244 0
244 -963 964 0
-243 -963 964 0
-964 -244 243 0
243 -964 965 0
-244 -964 965 0
-965 -264 265 0
265 -965 966 0
-264 -965 966 0
-966 -265 264 0
264 -966 967 0
-265 -966 967 0
-967 -285 286 0
286 -967 968 0
-285 -967 968 0
-968 -286 285 0
285 -968 969 0
-286 -968 969 0
-969 -306 307 0
307 -969 970 0
-306 -969 970 0
-970 -307 306 0
306 -970 971 0
-307 -970 971 0
-971 -327 328 0
328 -971 972 0
-327 -971 972 0
-972 -328 327 0
327 -972 973 0
-328 -972 973 0
-973 -392 397 0
397 -973 974 0
-392 -973 974 0
-974 -397 392 0
392 -974 975 0
-397 -974 975 0
-975 -393 398 0
398 -975 976 0
-393 -975 976 0
-976 -398 393 0
393 -976 977 0
-398 -976 977 0
-977 -394 399 0
399 -977 978 0
-394 -977 978 0
-978 -399 394 0
394 -978 979 0
-399 -978 979 0
-979 -395 400 0
400 -979 980 0
-395 -979 980 0
-980 -400 395 0
395 -980 981 0
-400 -980 981 0
-981 -396 401 0
401 -981 982 0
-396 -981 982 0
-982 -401 396 0
396 -982 983 0
-401 -982 983 0
-983 -11 12 0
12 -983 984 0
-11 -983 984 0
-984 -12 11 0
11 -984 985 0
-12 -984 985 0
-985 -30 31 0
31 -985 986 0
-30 -985 986 0
-986 -31 30 0
30 -986 987 0
-31 -986 987 0
-987 -48 49 0
49 -987 988 0
-48 -987 988 0
-988 -49 48 0
48 -988 989 0
-49 -988 989 0
-989 -65 66 0
66 -989 990 0
-65 -989 990 0
-990 -66 65 0
991 0
-223 224 0
224 -991 992 0
-223 -991 992 0
-992 -224 223 0
223 -992 993 0
-224 -992 993 0
-993 -244 245 0
245 -993 994 0
-244 -993 994 0
-994 -245 244 0
244 -994 995 0
-245 -994 995 0
-995 -265 266 0
266 -995 996 0
-265 -995 996 0
-996 -266 265 0
265 -996 997 0
-266 -996 997 0
-997 -286 287 0
287 -997 998 0
-286 -997 998 0
-998 -287 286 0
286 -998 999 0
-287 -998 999 0
-999 -307 308 0
308 -999 1000 0
-307 -999 1000 0
-1000 -308 307 0
307 -1000 1001 0
-308 -1000 1001 0
-1001 -328 329 0
329 -1001 1002 0
-328 -1001 1002 0
-1002 -329 328 0
328 -1002 1003 0
-329 -1002 1003 0
-1003 -397 402 0
402 -1003 1004 0
-397 -1003 1004 0
-1004 -402 397 0
397 -1004 1005 0
-402 -1004 1005 0
-1005 -398 403 0
403 -1005 1006 0
-398 -1005 1006 0
-1006 -403 398 0
398 -1006 1007 0
-403 -1006 1007 0
-1007 -399 404 0
404 -1007 1008 0
-399 -1007 1008 0
-1008 -404 399 0
399 -1008 1009 0
-404 -1008 1009 0
-1009 -400 405 0
405 -1009 1010 0
-400 -1009 1010 0
-1010 -405 400 0
400 -1010 1011 0
-405 -1010 1011 0
-1011 -401 406 0
406 -1011 1012 0
-401 -1011 1012 0
-1012 -406 401 0
401 -1012 1013 0
-406 -1012 1013 0
-1013 -12 13 0
13 -1013 1014 0
-12 -1013 1014 0
-1014 -13 12 0
12 -1014 1015 0
-13 -1014 1015 0
-1015 -31 32 0
32 -1015 1016 0
-31 -1015 1016 0
-1016 -32 31 0
31 -1016 1017 0
-32 -1016 1017 0
-1017 -49 50 0
50 -1017 1018 0
-49 -1017 1018 0
-1018 -50 49 0
49 -1018 1019 0
-50 -1018 1019 0
-1019 -66 67 0
67 -1019 1020 0
-66 -1019 1020 0
-1020 -67 66 0
1021 0
-224 225 0
225 -1021 1022 0
-224 -1021 1022 0
-1022 -225 224 0
224 -1022 1023 0
-225 -1022 1023 0
-1023 -245 246 0
246 -1023 1024 0
-245 -1023 1024 0
-1024 -246 245 0
245 -1024 1025 0
-246 -1024 1025 0
-1025 -266 267 0
267 -1025 1026 0
-266 -1025 1026 0
-1026 -267 266 0
266 -1026 1027 0
-267 -1026 1027 0
-1027 -287 288 0
288 -1027 1028 0
-287 -1027 1028 0
-1028 -288 287 0
287 -1028 1029 0
-288 -1028 1029 0
-1029 -308 309 0
309 -1029 1030 0
-308 -1029 1030 0
-1030 -309 308 0
308 -1030 1031 0
-309 -1030 1031 0
-1031 -329 330 0
330 -1031 1032 0
-329 -1031 1032 0
-1032 -330 329 0
329 -1032 1033 0
-330 -1032 1033 0
-1033 -402 407 0
407 -1033 1034 0
-402 -1033 1034 0
-1034 -407 402 0
402 -1034 1035 0
-407 -1034 1035 0
-1035 -403 408 0
408 -1035 1036 0
-403 -1035 1036 0
-1036 -408 403 0
403 -1036 1037 0
-408 -1036 1037 0
-1037 -404 409 0
409 -1037 1038 0
-404 -1037 1038 0
-1038 -409 404 0
404 -1038 1039 0
-409 -1038 1039 0
-1039 -405 410 0
410 -1039 1040 0
-405 -1039 1040 0
-1040 -410 405 0
405 -1040 1041 0
-410 -1040 1041 0
-1041 -406 411 0
411 -1041 1042 0
-406 -1041 1042 0
-1042 -411 406 0
406 -1042 1043 0
-411 -1042 1043 0
-1043 -13 14 0
14 -1043 1044 0
-13 -1043 1044 0
-1044 -14 13 0
13 -1044 1045 0
-14 -1044 1045 0
-1045 -32 33 0
33 -1045 1046 0
-32 -1045 1046 0
-1046 -33 32 0
32 -1046 1047 0
-33 -1046 1047 0
-1047 -50 51 0
51 -1047 1048 0
-50 -1047 1048 0
-1048 -51 50 0
50 -1048 1049 0
-51 -1048 1049 0
-1049 -67 68 0
68 -1049 1050 0
-67 -1049 1050 0
-1050 -68 67 0
1051 0
-225 226 0
226 -1051 1052 0
-225 -1051 1052 0
-1052 -226 225 0
225 -1052 1053 0
-226 -1052 1053 0
-1053 -246 247 0
247 -1053 1054 0
-246 -1053 1054 0
-1054 -247 246 0
246 -1054 1055 0
-247 -1054 1055 0
-1055 -267 268 0
268 -1055 1056 0
-267 -1055 1056 0
-1056 -268 267 0
267 -1056 1057 0
-268 -1056 1057 0
-1057 -288 289 0
289 -1057 1058 0
-288 -1057 1058 0
-1058 -289 288 0
288 -1058 1059 0
-289 -1058 1059 0
-1059 -309 310 0
310 -1059 1060 0
-309 -1059 1060 0
-1060 -310 309 0
309 -1060 1061 0
-310 -1060 1061 0
-1061 -330 331 0
331 -1061 1062 0
-330 -1061 1062 0
-1062 -331 330 0
330 -1062 1063 0
-331 -1062 1063 0
-1063 -407 412 0
412 -1063 1064 0
-407 -1063 1064 0
-1064 -412 407 0
407 -1064 1065 0
-412 -1064 1065 0
-1065 -408 413 0
413 -1065 1066 0
-408 -1065 1066 0
-1066 -413 408 0
408 -1066 1067 0
-413 -1066 1067 0
-1067 -409 414 0
414 -1067 1068 0
-409 -1067 1068 0
-1068 -414 409 0
409 -1068 1069 0
-414 -1068 1069 0
-1069 -410 415 0
415 -1069 1070 0
-410 -1069 1070 0
-1070 -415 410 0
410 -1070 1071 0
-415 -1070 1071 0
-1071 -411 416 0
416 -1071 1072 0
-411 -1071 1072 0
-1072 -416 411 0
411 -1072 1073 0
-416 -1072 1073 0
-1073 -14 15 0
15 -1073 1074 0
-14 -1073 1074 0
-1074 -15 14 0
14 -1074 1075 0
-15 -1074 1075 0
-1075 -33 34 0
34 -1075 1076 0
-33 -1075 1076 0
-1076 -34 33 0
33 -1076 1077 0
-34 -1076 1077 0
-1077 -51 52 0
52 -1077 1078 0
-51 -1077 1078 0
-1078 -52 51 0
51 -1078 1079 0
-52 -1078 1079 0
-1079 -68 69 0
69 -1079 1080 0
-68 -1079 1080 0
-1080 -69 68 0
1081 0
-226 227 0
227 -1081 1082 0
-226 -1081 1082 0
-1082 -227 226 0
226 -1082 1083 0
-227 -1082 1083 0
-1083 -247 248 0
248 -1083 1084 0
-247 -1083 1084 0
-1084 -248 247 0
247 -1084 1085 0
-248 -1084 1085 0
-1085 -268 269 0
269 -1085 1086 0
-268 -1085 1086 0
-1086 -269 268 0
268 -1086 1087 0
-269 -1086 1087 0
-1087 -289 290 0
290 -1087 1088 0
-289 -1087 1088 0
-1088 -290 289 0
289 -1088 1089 0
-290 -1088 1089 0
-1089 -310 311 0
311 -1089 1090 0
-310 -1089 1090 0
-1090 -311 310 0
310 -1090 1091 0
-311 -1090 1091 0
-1091 -331 332 0
332 -1091 1092 0
-331 -1091 1092 0
-1092 -332 331 0
331 -1092 1093 0
-332 -1092 1093 0
-1093 -412 417 0
417 -1093 1094 0
-412 -1093 1094 0
-1094 -417 412 0
412 -1094 1095 0
-417 -1094 1095 0
-1095 -413 418 0
418 -1095 1096 0
-413 -1095 1096 0
-1096 -418 413 0
413 -1096 1097 0
-418 -1096 1097 0
-1097 -414 419 0
419 -1097 1098 0
-414 -1097 1098 0
-1098 -419 414 0
414 -1098 1099 0
-419 -1098 1099 0
-1099 -415 420 0
420 -1099 1100 0
-415 -1099 1100 0
-1100 -420 415 0
415 -1100 1101 0
-420 -1100 1101 0
-1101 -416 421 0
421 -1101 1102 0
-416 -1101 1102 0
-1102 -421 416 0
416 -1102 1103 0
-421 -1102 1103 0
-1103 -15 16 0
16 -1103 1104 0
-15 -1103 1104 0
-1104 -16 15 0
15 -1104 1105 0
-16 -1104 1105 0
-1105 -34 35 0
35 -1105 1106 0
-34 -1105 1106 0
-1106 -35 34 0
34 -1106 1107 0
-35 -1106 1107 0
-1107 -52 53 0
53 -1107 1108 0
-52 -1107 1108 0
-1108 -53 52 0
52 -1108 1109 0
-53 -1108 1109 0
-1109 -69 70 0
70 -1109 1110 0
-69 -1109 1110 0
-1110 -70 69 0
1111 0
-227 228 0
228 -1111 1112 0
-227 -1111 1112 0
-1112 -228 227 0
227 -1112 1113 0
-228 -1112 1113 0
-1113 -248 249 0
249 -1113 1114 0
-248 -1113 1114 0
-1114 -249 248 0
248 -1114 1115 0
-249 -1114 1115 0
-1115 -269 270 0
270 -1115 1116 0
-269 -1115 1116 0
-1116 -270 269 0
269 -1116 1117 0
-270 -1116 1117 0
-1117 -290 291 0
291 -1117 1118 0
-290 -1117 1118 0
-1118 -291 290 0
290 -1118 1119 0
-291 -1118 1119 0
-1119 -311 312 0
312 -1119 1120 0
-311 -1119 1120 0
-1120 -312 311 0
311 -1120 1121 0
-312 -1120 1121 0
-1121 -332 333 0
333 -1121 1122 0
-332 -1121 1122 0
-1122 -333 332 0
332 -1122 1123 0
-333 -1122 1123 0
-1123 -417 422 0
422 -1123 1124 0
-417 -1123 1124 0
-1124 -422 417 0
417 -1124 1125 0
-422 -1124 1125 0
-1125 -418 423 0
423 -1125 1126 0
-418 -1125 1126 0
-1126 -423 418 0
418 -1126 1127 0
-423 -1126 1127 0
-1127 -419 424 0
424 -1127 1128 0
-419 -1127 1128 0
-1128 -424 419 0
419 -1128 1129 0
-424 -1128 1129 0
-1129 -420 425 0
425 -1129 1130 0
-420 -1129 1130 0
-1130 -425 420 0
420 -1130 1131 0
-425 -1130 1131 0
-1131 -421 426 0
426 -1131 1132 0
-421 -1131 1132 0
-1132 -426 421 0
421 -1132 1133 0
-426 -1132 1133 0
-1133 -16 17 0
17 -1133 1134 0
-16 -1133 1134 0
-1134 -17 16 0
16 -1134 1135 0
-17 -1134 1135 0
-1135 -35 36 0
36 -1135 1136 0
-35 -1135 1136 0
-1136 -36 35 0
35 -1136 1137 0
-36 -1136 1137 0
-1137 -53 54 0
54 -1137 1138 0
-53 -1137 1138 0
-1138 -54 53 0
53 -1138 1139 0
-54 -1138 1139 0
-1139 -70 71 0
71 -1139 1140 0
-70 -1139 1140 0
-1140 -71 70 0
1141 0
-228 229 0
229 -1141 1142 0
-228 -1141 1142 0
-1142 -229 228 0
228 -1142 1143 0
-229 -1142 1143 0
-1143 -249 250 0
250 -1143 1144 0
-249 -1143 1144 0
-1144 -250 249 0
249 -1144 1145 0
-250 -1144 1145 0
-1145 -270 271 0
271 -1145 1146 0
-270 -1145 1146 0
-1146 -271 270 0
270 -1146 1147 0
-271 -1146 1147 0
-1147 -291 292 0
292 -1147 1148 0
-291 -1147 1148 0
-1148 -292 291 0
291 -1148 1149 0
-292 -1148 1149 0
-1149 -312 313 0
313 -1149 1150 0
-312 -1149 1150 0
-1150 -313 312 0
312 -1150 1151 0
-313 -1150 1151 0
-1151 -333 334 0
334 -1151 1152 0
-333 -1151 1152 0
-1152 -334 333 0
333 -1152 1153 0
-334 -1152 1153 0
-1153 -422 427 0
427 -1153 1154 0
-422 -1153 1154 0
-1154 -427 422 0
422 -1154 1155 0
-427 -1154 1155 0
-1155 -423 428 0
428 -1155 1156 0
-423 -1155 1156 0
-1156 -428 423 0
423 -1156 1157 0
-428 -1156 1157 0
-1157 -424 429 0
429 -1157 1158 0
-424 -1157 1158 0
-1158 -429 424 0
424 -1158 1159 0
-429 -1158 1159 0
-1159 -425 430 0
430 -1159 1160 0
-425 -1159 1160 0
-1160 -430 425 0
425 -1160 1161 0
-430 -1160 1161 0
-1161 -426 431 0
431 -1161 1162 0
-426 -1161 1162 0
-1162 -431 426 0
426 -1162 1163 0
-431 -1162 1163 0
-1163 -17 18 0
18 -1163 1164 0
-17 -1163 1164 0
-1164 -18 17 0
17 -1164 1165 0
-18 -1164 1165 0
-1165 -36 37 0
37 -1165 1166 0
-36 -1165 1166 0
-1166 -37 36 0
36 -1166 1167 0
-37 -1166 1167 0
-1167 -54 55 0
55 -1167 1168 0
-54 -1167 1168 0
-1168 -55 54 0
54 -1168 1169 0
-55 -1168 1169 0
-1169 -71 72 0
72 -1169 1170 0
-71 -1169 1170 0
-1170 -72 71 0
1171 0
-229 230 0
230 -1171 1172 0
-229 -1171 1172 0
-1172 -230 229 0
229 -1172 1173 0
-230 -1172 1173 0
-1173 -250 251 0
251 -1173 1174 0
-250 -1173 1174 0
-1174 -251 250 0
250 -1174 1175 0
-251 -1174 1175 0
-1175 -271 272 0
272 -1175 1176 0
-271 -1175 1176 0
-1176 -272 271 0
271 -1176 1177 0
-272 -1176 1177 0
-1177 -292 293 0
293 -1177 1178 0
-292 -1177 1178 0
-1178 -293 292 0
292 -1178 1179 0
-293 -1178 1179 0
-1179 -313 314 0
314 -1179 1180 0
-313 -1179 1180 0
-1180 -314 313 0
313 -1180 1181 0
-314 -1180 1181 0
-1181 -334 335 0
335 -1181 1182 0
-334 -1181 1182 0
-1182 -335 334 0
334 -1182 1183 0
-335 -1182 1183 0
-1183 -427 432 0
432 -1183 1184 0
-427 -1183 1184 0
-1184 -432 427 0
427 -1184 1185 0
-432 -1184 1185 0
-1185 -428 433 0
433 -1185 1186 0
-428 -1185 1186 0
-1186 -433 428 0
428 -1186 1187 0
-433 -1186 1187 0
-1187 -429 434 0
434 -1187 1188 0
-429 -1187 1188 0
-1188 -434 429 0
429 -1188 1189 0
-434 -1188 1189 0
-1189 -430 435 0
435 -1189 1190 0
-430 -1189 1190 0
-1190 -435 430 0
430 -1190 1191 0
-435 -1190 1191 0
-1191 -431 436 0
436 -1191 1192 0
-431 -1191 1192 0
-1192 -436 431 0
431 -1192 1193 0
-436 -1192 1193 0
-1193 -18 19 0
19 -1193 1194 0
-18 -1193 1194 0
-1194 -19 18 0
18 -1194 1195 0
-19 -1194 1195 0
-1195 -37 38 0
38 -1195 1196 0
-37 -1195 1196 0
-1196 -38 37 0
37 -1196 1197 0
-38 -1196 1197 0
-1197 -55 56 0
56 -1197 1198 0
-55 -1197 1198 0
-1198 -56 55 0
55 -1198 1199 0
-56 -1198 1199 0
-1199 -72 73 0
73 -1199 1200 0
-72 -1199 1200 0
-1200 -73 72 0
1201 0
-230 231 0
231 -1201 1202 0
-230 -1201 1202 0
-1202 -231 230 0
230 -1202 1203 0
-231 -1202 1203 0
-1203 -251 252 0
252 -1203 1204 0
-251 -1203 1204 0
-1204 -252 251 0
251 -1204 1205 0
-252 -1204 1205 0
-1205 -272 273 0
273 -1205 1206 0
-272 -1205 1206 0
-1206 -273 272 0
272 -1206 1207 0
-273 -1206 1207 0
-1207 -293 294 0
294 -1207 1208 0
-293 -1207 1208 0
-1208 -294 293 0
293 -1208 1209 0
-294 -1208 1209 0
-1209 -314 315 0
315 -1209 1210 0
-314 -1209 1210 0
-1210 -315 314 0
314 -1210 1211 0
-315 -1210 1211 0
-1211 -335 336 0
336 -1211 1212 0
-335 -1211 1212 0
-1212 -336 335 0
335 -1212 1213 0
-336 -1212 1213 0
-1213 -432 437 0
437 -1213 1214 0
-432 -1213 1214 0
-1214 -437 432 0
432 -1214 1215 0
-437 -1214 1215 0
-1215 -433 438 0
438 -1215 1216 0
-433 -1215 1216 0
-1216 -438 433 0
433 -1216 1217 0
-438 -1216 1217 0
-1217 -434 439 0
439 -1217 1218 0
-434 -1217 1218 0
-1218 -439 434 0
434 -1218 1219 0
-439 -1218 1219 0
-1219 -435 440 0
440 -1219 1220 0
-435 -1219 1220 0
-1220 -440 435 0
435 -1220 1221 0
-440 -1220 1221 0
-1221 -436 441 0
441 -1221 1222 0
-436 -1221 1222 0
-1222 -441 436 0
436 -1222 1223 0
-441 -1222 1223 0
-1223 -19 20 0
20 -1223 1224 0
-19 -1223 1224 0
-1224 -20 19 0
19 -1224 1225 0
-20 -1224 1225 0
-1225 -38 39 0
39 -1225 1226 0
-38 -1225 1226 0
-1226 -39 38 0
38 -1226 1227 0
-39 -1226 1227 0
-1227 -56 57 0
57 -1227 1228 0
-56 -1227 1228 0
-1228 -57 56 0
56 -1228 1229 0
-57 -1228 1229 0
-1229 -73 74 0
74 -1229 1230 0
-73 -1229 1230 0
-1230 -74 73 0
