p cnf 1078 11133
-154 -155 0
-154 -156 0
-154 -157 0
-154 -158 0
-154 -159 0
-154 -160 0
-154 -161 0
-154 -162 0
-154 -163 0
-154 -164 0
-154 -165 0
-154 -166 0
-154 -167 0
-154 -168 0
-154 -169 0
-154 -170 0
-154 -171 0
-155 -156 0
-155 -157 0
-155 -158 0
-155 -159 0
-155 -160 0
-155 -161 0
-155 -162 0
-155 -163 0
-155 -164 0
-155 -165 0
-155 -166 0
-155 -167 0
-155 -168 0
-155 -169 0
-155 -170 0
-155 -171 0
-156 -157 0
-156 -158 0
-156 -159 0
-156 -160 0
-156 -161 0
-156 -162 0
-156 -163 0
-156 -164 0
-156 -165 0
-156 -166 0
-156 -167 0
-156 -168 0
-156 -169 0
-156 -170 0
-156 -171 0
-157 -158 0
-157 -159 0
-157 -160 0
-157 -161 0
-157 -162 0
-157 -163 0
-157 -164 0
-157 -165 0
-157 -166 0
-157 -167 0
-157 -168 0
-157 -169 0
-157 -170 0
-157 -171 0
-158 -159 0
-158 -160 0
-158 -161 0
-158 -162 0
-158 -163 0
-158 -164 0
-158 -165 0
-158 -166 0
-158 -167 0
-158 -168 0
-158 -169 0
-158 -170 0
-158 -171 0
-159 -160 0
-159 -161 0
-159 -162 0
-159 -163 0
-159 -164 0
-159 -165 0
-159 -166 0
-159 -167 0
-159 -168 0
-159 -169 0
-159 -170 0
-159 -171 0
-160 -161 0
-160 -162 0
-160 -163 0
-160 -164 0
-160 -165 0
-160 -166 0
-160 -167 0
-160 -168 0
-160 -169 0
-160 -170 0
-160 -171 0
-161 -162 0
-161 -163 0
-161 -164 0
-161 -165 0
-161 -166 0
-161 -167 0
-161 -168 0
-161 -169 0
-161 -170 0
-161 -171 0
-162 -163 0
-162 -164 0
-162 -165 0
-162 -166 0
-162 -167 0
-162 -168 0
-162 -169 0
-162 -170 0
-162 -171 0
-163 -164 0
-163 -165 0
-163 -166 0
-163 -167 0
-163 -168 0
-163 -169 0
-163 -170 0
-163 -171 0
-164 -165 0
-164 -166 0
-164 -167 0
-164 -168 0
-164 -169 0
-164 -170 0
-164 -171 0
-165 -166 0
-165 -167 0
-165 -168 0
-165 -169 0
-165 -170 0
-165 -171 0
-166 -167 0
-166 -168 0
-166 -169 0
-166 -170 0
-166 -171 0
-167 -168 0
-167 -169 0
-167 -170 0
-167 -171 0
-168 -169 0
-168 -170 0
-168 -171 0
-169 -170 0
-169 -171 0
-170 -171 0
154 155 156 157 158 159 160 161 162 163 164 165 166 167 168 169 170 171 0
-172 -173 0
-172 -174 0
-172 -175 0
-172 -176 0
-172 -177 0
-172 -178 0
-172 -179 0
-172 -180 0
-172 -181 0
-172 -182 0
-172 -183 0
-172 -184 0
-172 -185 0
-172 -186 0
-172 -187 0
-172 -188 0
-172 -189 0
-173 -174 0
-173 -175 0
-173 -176 0
-173 -177 0
-173 -178 0
-173 -179 0
-173 -180 0
-173 -181 0
-173 -182 0
-173 -183 0
-173 -184 0
-173 -185 0
-173 -186 0
-173 -187 0
-173 -188 0
-173 -189 0
-174 -175 0
-174 -176 0
-174 -177 0
-174 -178 0
-174 -179 0
-174 -180 0
-174 -181 0
-174 -182 0
-174 -183 0
-174 -184 0
-174 -185 0
-174 -186 0
-174 -187 0
-174 -188 0
-174 -189 0
-175 -176 0
-175 -177 0
-175 -178 0
-175 -179 0
-175 -180 0
-175 -181 0
-175 -182 0
-175 -183 0
-175 -184 0
-175 -185 0
-175 -186 0
-175 -187 0
-175 -188 0
-175 -189 0
-176 -177 0
-176 -178 0
-176 -179 0
-176 -180 0
-176 -181 0
-176 -182 0
-176 -183 0
-176 -184 0
-176 -185 0
-176 -186 0
-176 -187 0
-176 -188 0
-176 -189 0
-177 -178 0
-177 -179 0
-177 -180 0
-177 -181 0
-177 -182 0
-177 -183 0
-177 -184 0
-177 -185 0
-177 -186 0
-177 -187 0
-177 -188 0
-177 -189 0
-178 -179 0
-178 -180 0
-178 -181 0
-178 -182 0
-178 -183 0
-178 -184 0
-178 -185 0
-178 -186 0
-178 -187 0
-178 -188 0
-178 -189 0
-179 -180 0
-179 -181 0
-179 -182 0
-179 -183 0
-179 -184 0
-179 -185 0
-179 -186 0
-179 -187 0
-179 -188 0
-179 -189 0
-180 -181 0
-180 -182 0
-180 -183 0
-180 -184 0
-180 -185 0
-180 -186 0
-180 -187 0
-180 -188 0
-180 -189 0
-181 -182 0
-181 -183 0
-181 -184 0
-181 -185 0
-181 -186 0
-181 -187 0
-181 -188 0
-181 -189 0
-182 -183 0
-182 -184 0
-182 -185 0
-182 -186 0
-182 -187 0
-182 -188 0
-182 -189 0
-183 -184 0
-183 -185 0
-183 -186 0
-183 -187 0
-183 -188 0
-183 -189 0
-184 -185 0
-184 -186 0
-184 -187 0
-184 -188 0
-184 -189 0
-185 -186 0
-185 -187 0
-185 -188 0
-185 -189 0
-186 -187 0
-186 -188 0
-186 -189 0
-187 -188 0
-187 -189 0
-188 -189 0
172 173 174 175 176 177 178 179 180 181 182 183 184 185 186 187 188 189 0
-190 -191 0
-190 -192 0
-190 -193 0
-190 -194 0
-190 -195 0
-190 -196 0
-190 -197 0
-190 -198 0
-190 -199 0
-190 -200 0
-190 -201 0
-190 -202 0
-190 -203 0
-190 -204 0
-190 -205 0
-190 -206 0
-190 -207 0
-191 -192 0
-191 -193 0
-191 -194 0
-191 -195 0
-191 -196 0
-191 -197 0
-191 -198 0
-191 -199 0
-191 -200 0
-191 -201 0
-191 -202 0
-191 -203 0
-191 -204 0
-191 -205 0
-191 -206 0
-191 -207 0
-192 -193 0
-192 -194 0
-192 -195 0
-192 -196 0
-192 -197 0
-192 -198 0
-192 -199 0
-192 -200 0
-192 -201 0
-192 -202 0
-192 -203 0
-192 -204 0
-192 -205 0
-192 -206 0
-192 -207 0
-193 -194 0
-193 -195 0
-193 -196 0
-193 -197 0
-193 -198 0
-193 -199 0
-193 -200 0
-193 -201 0
-193 -202 0
-193 -203 0
-193 -204 0
-193 -205 0
-193 -206 0
-193 -207 0
-194 -195 0
-194 -196 0
-194 -197 0
-194 -198 0
-194 -199 0
-194 -200 0
-194 -201 0
-194 -202 0
-194 -203 0
-194 -204 0
-194 -205 0
-194 -206 0
-194 -207 0
-195 -196 0
-195 -197 0
-195 -198 0
-195 -199 0
-195 -200 0
-195 -201 0
-195 -202 0
-195 -203 0
-195 -204 0
-195 -205 0
-195 -206 0
-195 -207 0
-196 -197 0
-196 -198 0
-196 -199 0
-196 -200 0
-196 -201 0
-196 -202 0
-196 -203 0
-196 -204 0
-196 -205 0
-196 -206 0
-196 -207 0
-197 -198 0
-197 -199 0
-197 -200 0
-197 -201 0
-197 -202 0
-197 -203 0
-197 -204 0
-197 -205 0
-197 -206 0
-197 -207 0
-198 -199 0
-198 -200 0
-198 -201 0
-198 -202 0
-198 -203 0
-198 -204 0
-198 -205 0
-198 -206 0
-198 -207 0
-199 -200 0
-199 -201 0
-199 -202 0
-199 -203 0
-199 -204 0
-199 -205 0
-199 -206 0
-199 -207 0
-200 -201 0
-200 -202 0
-200 -203 0
-200 -204 0
-200 -205 0
-200 -206 0
-200 -207 0
-201 -202 0
-201 -203 0
-201 -204 0
-201 -205 0
-201 -206 0
-201 -207 0
-202 -203 0
-202 -204 0
-202 -205 0
-202 -206 0
-202 -207 0
-203 -204 0
-203 -205 0
-203 -206 0
-203 -207 0
-204 -205 0
-204 -206 0
-204 -207 0
-205 -206 0
-205 -207 0
-206 -207 0
190 191 192 193 194 195 196 197 198 199 200 201 202 203 204 205 206 207 0
-208 -209 0
-208 -210 0
-208 -211 0
-208 -212 0
-208 -213 0
-208 -214 0
-208 -215 0
-208 -216 0
-208 -217 0
-208 -218 0
-208 -219 0
-208 -220 0
-208 -221 0
-208 -222 0
-208 -223 0
-208 -224 0
-208 -225 0
-209 -210 0
-209 -211 0
-209 -212 0
-209 -213 0
-209 -214 0
-209 -215 0
-209 -216 0
-209 -217 0
-209 -218 0
-209 -219 0
-209 -220 0
-209 -221 0
-209 -222 0
-209 -223 0
-209 -224 0
-209 -225 0
-210 -211 0
-210 -212 0
-210 -213 0
-210 -214 0
-210 -215 0
-210 -216 0
-210 -217 0
-210 -218 0
-210 -219 0
-210 -220 0
-210 -221 0
-210 -222 0
-210 -223 0
-210 -224 0
-210 -225 0
-211 -212 0
-211 -213 0
-211 -214 0
-211 -215 0
-211 -216 0
-211 -217 0
-211 -218 0
-211 -219 0
-211 -220 0
-211 -221 0
-211 -222 0
-211 -223 0
-211 -224 0
-211 -225 0
-212 -213 0
-212 -214 0
-212 -215 0
-212 -216 0
-212 -217 0
-212 -218 0
-212 -219 0
-212 -220 0
-212 -221 0
-212 -222 0
-212 -223 0
-212 -224 0
-212 -225 0
-213 -214 0
-213 -215 0
-213 -216 0
-213 -217 0
-213 -218 0
-213 -219 0
-213 -220 0
-213 -221 0
-213 -222 0
-213 -223 0
-213 -224 0
-213 -225 0
-214 -215 0
-214 -216 0
-214 -217 0
-214 -218 0
-214 -219 0
-214 -220 0
-214 -221 0
-214 -222 0
-214 -223 0
-214 -224 0
-214 -225 0
-215 -216 0
-215 -217 0
-215 -218 0
-215 -219 0
-215 -220 0
-215 -221 0
-215 -222 0
-215 -223 0
-215 -224 0
-215 -225 0
-216 -217 0
-216 -218 0
-216 -219 0
-216 -220 0
-216 -221 0
-216 -222 0
-216 -223 0
-216 -224 0
-216 -225 0
-217 -218 0
-217 -219 0
-217 -220 0
-217 -221 0
-217 -222 0
-217 -223 0
-217 -224 0
-217 -225 0
-218 -219 0
-218 -220 0
-218 -221 0
-218 -222 0
-218 -223 0
-218 -224 0
-218 -225 0
-219 -220 0
-219 -221 0
-219 -222 0
-219 -223 0
-219 -224 0
-219 -225 0
-220 -221 0
-220 -222 0
-220 -223 0
-220 -224 0
-220 -225 0
-221 -222 0
-221 -223 0
-221 -224 0
-221 -225 0
-222 -223 0
-222 -224 0
-222 -225 0
-223 -224 0
-223 -225 0
-224 -225 0
208 209 210 211 212 213 214 215 216 217 218 219 220 221 222 223 224 225 0
-226 -227 0
-226 -228 0
-226 -229 0
-226 -230 0
-226 -231 0
-226 -232 0
-226 -233 0
-226 -234 0
-226 -235 0
-226 -236 0
-226 -237 0
-226 -238 0
-226 -239 0
-226 -240 0
-226 -241 0
-226 -242 0
-226 -243 0
-227 -228 0
-227 -229 0
-227 -230 0
-227 -231 0
-227 -232 0
-227 -233 0
-227 -234 0
-227 -235 0
-227 -236 0
-227 -237 0
-227 -238 0
-227 -239 0
-227 -240 0
-227 -241 0
-227 -242 0
-227 -243 0
-228 -229 0
-228 -230 0
-228 -231 0
-228 -232 0
-228 -233 0
-228 -234 0
-228 -235 0
-228 -236 0
-228 -237 0
-228 -238 0
-228 -239 0
-228 -240 0
-228 -241 0
-228 -242 0
-228 -243 0
-229 -230 0
-229 -231 0
-229 -232 0
-229 -233 0
-229 -234 0
-229 -235 0
-229 -236 0
-229 -237 0
-229 -238 0
-229 -239 0
-229 -240 0
-229 -241 0
-229 -242 0
-229 -243 0
-230 -231 0
-230 -232 0
-230 -233 0
-230 -234 0
-230 -235 0
-230 -236 0
-230 -237 0
-230 -238 0
-230 -239 0
-230 -240 0
-230 -241 0
-230 -242 0
-230 -243 0
-231 -232 0
-231 -233 0
-231 -234 0
-231 -235 0
-231 -236 0
-231 -237 0
-231 -238 0
-231 -239 0
-231 -240 0
-231 -241 0
-231 -242 0
-231 -243 0
-232 -233 0
-232 -234 0
-232 -235 0
-232 -236 0
-232 -237 0
-232 -238 0
-232 -239 0
-232 -240 0
-232 -241 0
-232 -242 0
-232 -243 0
-233 -234 0
-233 -235 0
-233 -236 0
-233 -237 0
-233 -238 0
-233 -239 0
-233 -240 0
-233 -241 0
-233 -242 0
-233 -243 0
-234 -235 0
-234 -236 0
-234 -237 0
-234 -238 0
-234 -239 0
-234 -240 0
-234 -241 0
-234 -242 0
-234 -243 0
-235 -236 0
-235 -237 0
-235 -238 0
-235 -239 0
-235 -240 0
-235 -241 0
-235 -242 0
-235 -243 0
-236 -237 0
-236 -238 0
-236 -239 0
-236 -240 0
-236 -241 0
-236 -242 0
-236 -243 0
-237 -238 0
-237 -239 0
-237 -240 0
-237 -241 0
-237 -242 0
-237 -243 0
-238 -239 0
-238 -240 0
-238 -241 0
-238 -242 0
-238 -243 0
-239 -240 0
-239 -241 0
-239 -242 0
-239 -243 0
-240 -241 0
-240 -242 0
-240 -243 0
-241 -242 0
-241 -243 0
-242 -243 0
226 227 228 229 230 231 232 233 234 235 236 237 238 239 240 241 242 243 0
-244 -245 0
-244 -246 0
-244 -247 0
-244 -248 0
-244 -249 0
-244 -250 0
-244 -251 0
-244 -252 0
-244 -253 0
-244 -254 0
-244 -255 0
-244 -256 0
-244 -257 0
-244 -258 0
-244 -259 0
-244 -260 0
-244 -261 0
-245 -246 0
-245 -247 0
-245 -248 0
-245 -249 0
-245 -250 0
-245 -251 0
-245 -252 0
-245 -253 0
-245 -254 0
-245 -255 0
-245 -256 0
-245 -257 0
-245 -258 0
-245 -259 0
-245 -260 0
-245 -261 0
-246 -247 0
-246 -248 0
-246 -249 0
-246 -250 0
-246 -251 0
-246 -252 0
-246 -253 0
-246 -254 0
-246 -255 0
-246 -256 0
-246 -257 0
-246 -258 0
-246 -259 0
-246 -260 0
-246 -261 0
-247 -248 0
-247 -249 0
-247 -250 0
-247 -251 0
-247 -252 0
-247 -253 0
-247 -254 0
-247 -255 0
-247 -256 0
-247 -257 0
-247 -258 0
-247 -259 0
-247 -260 0
-247 -261 0
-248 -249 0
-248 -250 0
-248 -251 0
-248 -252 0
-248 -253 0
-248 -254 0
-248 -255 0
-248 -256 0
-248 -257 0
-248 -258 0
-248 -259 0
-248 -260 0
-248 -261 0
-249 -250 0
-249 -251 0
-249 -252 0
-249 -253 0
-249 -254 0
-249 -255 0
-249 -256 0
-249 -257 0
-249 -258 0
-249 -259 0
-249 -260 0
-249 -261 0
-250 -251 0
-250 -252 0
-250 -253 0
-250 -254 0
-250 -255 0
-250 -256 0
-250 -257 0
-250 -258 0
-250 -259 0
-250 -260 0
-250 -261 0
-251 -252 0
-251 -253 0
-251 -254 0
-251 -255 0
-251 -256 0
-251 -257 0
-251 -258 0
-251 -259 0
-251 -260 0
-251 -261 0
-252 -253 0
-252 -254 0
-252 -255 0
-252 -256 0
-252 -257 0
-252 -258 0
-252 -259 0
-252 -260 0
-252 -261 0
-253 -254 0
-253 -255 0
-253 -256 0
-253 -257 0
-253 -258 0
-253 -259 0
-253 -260 0
-253 -261 0
-254 -255 0
-254 -256 0
-254 -257 0
-254 -258 0
-254 -259 0
-254 -260 0
-254 -261 0
-255 -256 0
-255 -257 0
-255 -258 0
-255 -259 0
-255 -260 0
-255 -261 0
-256 -257 0
-256 -258 0
-256 -259 0
-256 -260 0
-256 -261 0
-257 -258 0
-257 -259 0
-257 -260 0
-257 -261 0
-258 -259 0
-258 -260 0
-258 -261 0
-259 -260 0
-259 -261 0
-260 -261 0
244 245 246 247 248 249 250 251 252 253 254 255 256 257 258 259 260 261 0
-262 -263 0
-262 -264 0
-262 -265 0
-262 -266 0
-262 -267 0
-262 -268 0
-262 -269 0
-262 -270 0
-262 -271 0
-262 -272 0
-262 -273 0
-262 -274 0
-262 -275 0
-262 -276 0
-262 -277 0
-262 -278 0
-262 -279 0
-263 -264 0
-263 -265 0
-263 -266 0
-263 -267 0
-263 -268 0
-263 -269 0
-263 -270 0
-263 -271 0
-263 -272 0
-263 -273 0
-263 -274 0
-263 -275 0
-263 -276 0
-263 -277 0
-263 -278 0
-263 -279 0
-264 -265 0
-264 -266 0
-264 -267 0
-264 -268 0
-264 -269 0
-264 -270 0
-264 -271 0
-264 -272 0
-264 -273 0
-264 -274 0
-264 -275 0
-264 -276 0
-264 -277 0
-264 -278 0
-264 -279 0
-265 -266 0
-265 -267 0
-265 -268 0
-265 -269 0
-265 -270 0
-265 -271 0
-265 -272 0
-265 -273 0
-265 -274 0
-265 -275 0
-265 -276 0
-265 -277 0
-265 -278 0
-265 -279 0
-266 -267 0
-266 -268 0
-266 -269 0
-266 -270 0
-266 -271 0
-266 -272 0
-266 -273 0
-266 -274 0
-266 -275 0
-266 -276 0
-266 -277 0
-266 -278 0
-266 -279 0
-267 -268 0
-267 -269 0
-267 -270 0
-267 -271 0
-267 -272 0
-267 -273 0
-267 -274 0
-267 -275 0
-267 -276 0
-267 -277 0
-267 -278 0
-267 -279 0
-268 -269 0
-268 -270 0
-268 -271 0
-268 -272 0
-268 -273 0
-268 -274 0
-268 -275 0
-268 -276 0
-268 -277 0
-268 -278 0
-268 -279 0
-269 -270 0
-269 -271 0
-269 -272 0
-269 -273 0
-269 -274 0
-269 -275 0
-269 -276 0
-269 -277 0
-269 -278 0
-269 -279 0
-270 -271 0
-270 -272 0
-270 -273 0
-270 -274 0
-270 -275 0
-270 -276 0
-270 -277 0
-270 -278 0
-270 -279 0
-271 -272 0
-271 -273 0
-271 -274 0
-271 -275 0
-271 -276 0
-271 -277 0
-271 -278 0
-271 -279 0
-272 -273 0
-272 -274 0
-272 -275 0
-272 -276 0
-272 -277 0
-272 -278 0
-272 -279 0
-273 -274 0
-273 -275 0
-273 -276 0
-273 -277 0
-273 -278 0
-273 -279 0
-274 -275 0
-274 -276 0
-274 -277 0
-274 -278 0
-274 -279 0
-275 -276 0
-275 -277 0
-275 -278 0
-275 -279 0
-276 -277 0
-276 -278 0
-276 -279 0
-277 -278 0
-277 -279 0
-278 -279 0
262 263 264 265 266 267 268 269 270 271 272 273 274 275 276 277 278 279 0
-154 -172 0
-154 -190 0
-154 -208 0
-154 -226 0
-154 -244 0
-154 -262 0
-172 -190 0
-172 -208 0
-172 -226 0
-172 -244 0
-172 -262 0
-190 -208 0
-190 -226 0
-190 -244 0
-190 -262 0
-208 -226 0
-208 -244 0
-208 -262 0
-226 -244 0
-226 -262 0
-244 -262 0
-155 -173 0
-155 -191 0
-155 -209 0
-155 -227 0
-155 -245 0
-155 -263 0
-173 -191 0
-173 -209 0
-173 -227 0
-173 -245 0
-173 -263 0
-191 -209 0
-191 -227 0
-191 -245 0
-191 -263 0
-209 -227 0
-209 -245 0
-209 -263 0
-227 -245 0
-227 -263 0
-245 -263 0
-156 -174 0
-156 -192 0
-156 -210 0
-156 -228 0
-156 -246 0
-156 -264 0
-174 -192 0
-174 -210 0
-174 -228 0
-174 -246 0
-174 -264 0
-192 -210 0
-192 -228 0
-192 -246 0
-192 -264 0
-210 -228 0
-210 -246 0
-210 -264 0
-228 -246 0
-228 -264 0
-246 -264 0
-157 -175 0
-157 -193 0
-157 -211 0
-157 -229 0
-157 -247 0
-157 -265 0
-175 -193 0
-175 -211 0
-175 -229 0
-175 -247 0
-175 -265 0
-193 -211 0
-193 -229 0
-193 -247 0
-193 -265 0
-211 -229 0
-211 -247 0
-211 -265 0
-229 -247 0
-229 -265 0
-247 -265 0
-158 -176 0
-158 -194 0
-158 -212 0
-158 -230 0
-158 -248 0
-158 -266 0
-176 -194 0
-176 -212 0
-176 -230 0
-176 -248 0
-176 -266 0
-194 -212 0
-194 -230 0
-194 -248 0
-194 -266 0
-212 -230 0
-212 -248 0
-212 -266 0
-230 -248 0
-230 -266 0
-248 -266 0
-159 -177 0
-159 -195 0
-159 -213 0
-159 -231 0
-159 -249 0
-159 -267 0
-177 -195 0
-177 -213 0
-177 -231 0
-177 -249 0
-177 -267 0
-195 -213 0
-195 -231 0
-195 -249 0
-195 -267 0
-213 -231 0
-213 -249 0
-213 -267 0
-231 -249 0
-231 -267 0
-249 -267 0
-160 -178 0
-160 -196 0
-160 -214 0
-160 -232 0
-160 -250 0
-160 -268 0
-178 -196 0
-178 -214 0
-178 -232 0
-178 -250 0
-178 -268 0
-196 -214 0
-196 -232 0
-196 -250 0
-196 -268 0
-214 -232 0
-214 -250 0
-214 -268 0
-232 -250 0
-232 -268 0
-250 -268 0
-161 -179 0
-161 -197 0
-161 -215 0
-161 -233 0
-161 -251 0
-161 -269 0
-179 -197 0
-179 -215 0
-179 -233 0
-179 -251 0
-179 -269 0
-197 -215 0
-197 -233 0
-197 -251 0
-197 -269 0
-215 -233 0
-215 -251 0
-215 -269 0
-233 -251 0
-233 -269 0
-251 -269 0
-162 -180 0
-162 -198 0
-162 -216 0
-162 -234 0
-162 -252 0
-162 -270 0
-180 -198 0
-180 -216 0
-180 -234 0
-180 -252 0
-180 -270 0
-198 -216 0
-198 -234 0
-198 -252 0
-198 -270 0
-216 -234 0
-216 -252 0
-216 -270 0
-234 -252 0
-234 -270 0
-252 -270 0
-163 -181 0
-163 -199 0
-163 -217 0
-163 -235 0
-163 -253 0
-163 -271 0
-181 -199 0
-181 -217 0
-181 -235 0
-181 -253 0
-181 -271 0
-199 -217 0
-199 -235 0
-199 -253 0
-199 -271 0
-217 -235 0
-217 -253 0
-217 -271 0
-235 -253 0
-235 -271 0
-253 -271 0
-164 -182 0
-164 -200 0
-164 -218 0
-164 -236 0
-164 -254 0
-164 -272 0
-182 -200 0
-182 -218 0
-182 -236 0
-182 -254 0
-182 -272 0
-200 -218 0
-200 -236 0
-200 -254 0
-200 -272 0
-218 -236 0
-218 -254 0
-218 -272 0
-236 -254 0
-236 -272 0
-254 -272 0
-165 -183 0
-165 -201 0
-165 -219 0
-165 -237 0
-165 -255 0
-165 -273 0
-183 -201 0
-183 -219 0
-183 -237 0
-183 -255 0
-183 -273 0
-201 -219 0
-201 -237 0
-201 -255 0
-201 -273 0
-219 -237 0
-219 -255 0
-219 -273 0
-237 -255 0
-237 -273 0
-255 -273 0
-166 -184 0
-166 -202 0
-166 -220 0
-166 -238 0
-166 -256 0
-166 -274 0
-184 -202 0
-184 -220 0
-184 -238 0
-184 -256 0
-184 -274 0
-202 -220 0
-202 -238 0
-202 -256 0
-202 -274 0
-220 -238 0
-220 -256 0
-220 -274 0
-238 -256 0
-238 -274 0
-256 -274 0
-167 -185 0
-167 -203 0
-167 -221 0
-167 -239 0
-167 -257 0
-167 -275 0
-185 -203 0
-185 -221 0
-185 -239 0
-185 -257 0
-185 -275 0
-203 -221 0
-203 -239 0
-203 -257 0
-203 -275 0
-221 -239 0
-221 -257 0
-221 -275 0
-239 -257 0
-239 -275 0
-257 -275 0
-168 -186 0
-168 -204 0
-168 -222 0
-168 -240 0
-168 -258 0
-168 -276 0
-186 -204 0
-186 -222 0
-186 -240 0
-186 -258 0
-186 -276 0
-204 -222 0
-204 -240 0
-204 -258 0
-204 -276 0
-222 -240 0
-222 -258 0
-222 -276 0
-240 -258 0
-240 -276 0
-258 -276 0
-169 -187 0
-169 -205 0
-169 -223 0
-169 -241 0
-169 -259 0
-169 -277 0
-187 -205 0
-187 -223 0
-187 -241 0
-187 -259 0
-187 -277 0
-205 -223 0
-205 -241 0
-205 -259 0
-205 -277 0
-223 -241 0
-223 -259 0
-223 -277 0
-241 -259 0
-241 -277 0
-259 -277 0
-170 -188 0
-170 -206 0
-170 -224 0
-170 -242 0
-170 -260 0
-170 -278 0
-188 -206 0
-188 -224 0
-188 -242 0
-188 -260 0
-188 -278 0
-206 -224 0
-206 -242 0
-206 -260 0
-206 -278 0
-224 -242 0
-224 -260 0
-224 -278 0
-242 -260 0
-242 -278 0
-260 -278 0
-171 -189 0
-171 -207 0
-171 -225 0
-171 -243 0
-171 -261 0
-171 -279 0
-189 -207 0
-189 -225 0
-189 -243 0
-189 -261 0
-189 -279 0
-207 -225 0
-207 -243 0
-207 -261 0
-207 -279 0
-225 -243 0
-225 -261 0
-225 -279 0
-243 -261 0
-243 -279 0
-261 -279 0
1 -154 -173 0
1 -154 -191 0
1 -154 -209 0
1 -154 -227 0
1 -154 -245 0
1 -154 -263 0
1 -172 -155 0
1 -172 -191 0
1 -172 -209 0
1 -172 -227 0
1 -172 -245 0
1 -172 -263 0
1 -190 -155 0
1 -190 -173 0
1 -190 -209 0
1 -190 -227 0
1 -190 -245 0
1 -190 -263 0
1 -208 -155 0
1 -208 -173 0
1 -208 -191 0
1 -208 -227 0
1 -208 -245 0
1 -208 -263 0
1 -226 -155 0
1 -226 -173 0
1 -226 -191 0
1 -226 -209 0
1 -226 -245 0
1 -226 -263 0
1 -244 -155 0
1 -244 -173 0
1 -244 -191 0
1 -244 -209 0
1 -244 -227 0
1 -244 -263 0
1 -262 -155 0
1 -262 -173 0
1 -262 -191 0
1 -262 -209 0
1 -262 -227 0
1 -262 -245 0
2 -154 -174 0
2 -154 -192 0
2 -154 -210 0
2 -154 -228 0
2 -154 -246 0
2 -154 -264 0
2 -172 -156 0
2 -172 -192 0
2 -172 -210 0
2 -172 -228 0
2 -172 -246 0
2 -172 -264 0
2 -190 -156 0
2 -190 -174 0
2 -190 -210 0
2 -190 -228 0
2 -190 -246 0
2 -190 -264 0
2 -208 -156 0
2 -208 -174 0
2 -208 -192 0
2 -208 -228 0
2 -208 -246 0
2 -208 -264 0
2 -226 -156 0
2 -226 -174 0
2 -226 -192 0
2 -226 -210 0
2 -226 -246 0
2 -226 -264 0
2 -244 -156 0
2 -244 -174 0
2 -244 -192 0
2 -244 -210 0
2 -244 -228 0
2 -244 -264 0
2 -262 -156 0
2 -262 -174 0
2 -262 -192 0
2 -262 -210 0
2 -262 -228 0
2 -262 -246 0
3 -154 -175 0
3 -154 -193 0
3 -154 -211 0
3 -154 -229 0
3 -154 -247 0
3 -154 -265 0
3 -172 -157 0
3 -172 -193 0
3 -172 -211 0
3 -172 -229 0
3 -172 -247 0
3 -172 -265 0
3 -190 -157 0
3 -190 -175 0
3 -190 -211 0
3 -190 -229 0
3 -190 -247 0
3 -190 -265 0
3 -208 -157 0
3 -208 -175 0
3 -208 -193 0
3 -208 -229 0
3 -208 -247 0
3 -208 -265 0
3 -226 -157 0
3 -226 -175 0
3 -226 -193 0
3 -226 -211 0
3 -226 -247 0
3 -226 -265 0
3 -244 -157 0
3 -244 -175 0
3 -244 -193 0
3 -244 -211 0
3 -244 -229 0
3 -244 -265 0
3 -262 -157 0
3 -262 -175 0
3 -262 -193 0
3 -262 -211 0
3 -262 -229 0
3 -262 -247 0
4 -154 -176 0
4 -154 -194 0
4 -154 -212 0
4 -154 -230 0
4 -154 -248 0
4 -154 -266 0
4 -172 -158 0
4 -172 -194 0
4 -172 -212 0
4 -172 -230 0
4 -172 -248 0
4 -172 -266 0
4 -190 -158 0
4 -190 -176 0
4 -190 -212 0
4 -190 -230 0
4 -190 -248 0
4 -190 -266 0
4 -208 -158 0
4 -208 -176 0
4 -208 -194 0
4 -208 -230 0
4 -208 -248 0
4 -208 -266 0
4 -226 -158 0
4 -226 -176 0
4 -226 -194 0
4 -226 -212 0
4 -226 -248 0
4 -226 -266 0
4 -244 -158 0
4 -244 -176 0
4 -244 -194 0
4 -244 -212 0
4 -244 -230 0
4 -244 -266 0
4 -262 -158 0
4 -262 -176 0
4 -262 -194 0
4 -262 -212 0
4 -262 -230 0
4 -262 -248 0
5 -154 -177 0
5 -154 -195 0
5 -154 -213 0
5 -154 -231 0
5 -154 -249 0
5 -154 -267 0
5 -172 -159 0
5 -172 -195 0
5 -172 -213 0
5 -172 -231 0
5 -172 -249 0
5 -172 -267 0
5 -190 -159 0
5 -190 -177 0
5 -190 -213 0
5 -190 -231 0
5 -190 -249 0
5 -190 -267 0
5 -208 -159 0
5 -208 -177 0
5 -208 -195 0
5 -208 -231 0
5 -208 -249 0
5 -208 -267 0
5 -226 -159 0
5 -226 -177 0
5 -226 -195 0
5 -226 -213 0
5 -226 -249 0
5 -226 -267 0
5 -244 -159 0
5 -244 -177 0
5 -244 -195 0
5 -244 -213 0
5 -244 -231 0
5 -244 -267 0
5 -262 -159 0
5 -262 -177 0
5 -262 -195 0
5 -262 -213 0
5 -262 -231 0
5 -262 -249 0
6 -154 -178 0
6 -154 -196 0
6 -154 -214 0
6 -154 -232 0
6 -154 -250 0
6 -154 -268 0
6 -172 -160 0
6 -172 -196 0
6 -172 -214 0
6 -172 -232 0
6 -172 -250 0
6 -172 -268 0
6 -190 -160 0
6 -190 -178 0
6 -190 -214 0
6 -190 -232 0
6 -190 -250 0
6 -190 -268 0
6 -208 -160 0
6 -208 -178 0
6 -208 -196 0
6 -208 -232 0
6 -208 -250 0
6 -208 -268 0
6 -226 -160 0
6 -226 -178 0
6 -226 -196 0
6 -226 -214 0
6 -226 -250 0
6 -226 -268 0
6 -244 -160 0
6 -244 -178 0
6 -244 -196 0
6 -244 -214 0
6 -244 -232 0
6 -244 -268 0
6 -262 -160 0
6 -262 -178 0
6 -262 -196 0
6 -262 -214 0
6 -262 -232 0
6 -262 -250 0
7 -154 -179 0
7 -154 -197 0
7 -154 -215 0
7 -154 -233 0
7 -154 -251 0
7 -154 -269 0
7 -172 -161 0
7 -172 -197 0
7 -172 -215 0
7 -172 -233 0
7 -172 -251 0
7 -172 -269 0
7 -190 -161 0
7 -190 -179 0
7 -190 -215 0
7 -190 -233 0
7 -190 -251 0
7 -190 -269 0
7 -208 -161 0
7 -208 -179 0
7 -208 -197 0
7 -208 -233 0
7 -208 -251 0
7 -208 -269 0
7 -226 -161 0
7 -226 -179 0
7 -226 -197 0
7 -226 -215 0
7 -226 -251 0
7 -226 -269 0
7 -244 -161 0
7 -244 -179 0
7 -244 -197 0
7 -244 -215 0
7 -244 -233 0
7 -244 -269 0
7 -262 -161 0
7 -262 -179 0
7 -262 -197 0
7 -262 -215 0
7 -262 -233 0
7 -262 -251 0
8 -154 -180 0
8 -154 -198 0
8 -154 -216 0
8 -154 -234 0
8 -154 -252 0
8 -154 -270 0
8 -172 -162 0
8 -172 -198 0
8 -172 -216 0
8 -172 -234 0
8 -172 -252 0
8 -172 -270 0
8 -190 -162 0
8 -190 -180 0
8 -190 -216 0
8 -190 -234 0
8 -190 -252 0
8 -190 -270 0
8 -208 -162 0
8 -208 -180 0
8 -208 -198 0
8 -208 -234 0
8 -208 -252 0
8 -208 -270 0
8 -226 -162 0
8 -226 -180 0
8 -226 -198 0
8 -226 -216 0
8 -226 -252 0
8 -226 -270 0
8 -244 -162 0
8 -244 -180 0
8 -244 -198 0
8 -244 -216 0
8 -244 -234 0
8 -244 -270 0
8 -262 -162 0
8 -262 -180 0
8 -262 -198 0
8 -262 -216 0
8 -262 -234 0
8 -262 -252 0
9 -154 -181 0
9 -154 -199 0
9 -154 -217 0
9 -154 -235 0
9 -154 -253 0
9 -154 -271 0
9 -172 -163 0
9 -172 -199 0
9 -172 -217 0
9 -172 -235 0
9 -172 -253 0
9 -172 -271 0
9 -190 -163 0
9 -190 -181 0
9 -190 -217 0
9 -190 -235 0
9 -190 -253 0
9 -190 -271 0
9 -208 -163 0
9 -208 -181 0
9 -208 -199 0
9 -208 -235 0
9 -208 -253 0
9 -208 -271 0
9 -226 -163 0
9 -226 -181 0
9 -226 -199 0
9 -226 -217 0
9 -226 -253 0
9 -226 -271 0
9 -244 -163 0
9 -244 -181 0
9 -244 -199 0
9 -244 -217 0
9 -244 -235 0
9 -244 -271 0
9 -262 -163 0
9 -262 -181 0
9 -262 -199 0
9 -262 -217 0
9 -262 -235 0
9 -262 -253 0
10 -154 -182 0
10 -154 -200 0
10 -154 -218 0
10 -154 -236 0
10 -154 -254 0
10 -154 -272 0
10 -172 -164 0
10 -172 -200 0
10 -172 -218 0
10 -172 -236 0
10 -172 -254 0
10 -172 -272 0
10 -190 -164 0
10 -190 -182 0
10 -190 -218 0
10 -190 -236 0
10 -190 -254 0
10 -190 -272 0
10 -208 -164 0
10 -208 -182 0
10 -208 -200 0
10 -208 -236 0
10 -208 -254 0
10 -208 -272 0
10 -226 -164 0
10 -226 -182 0
10 -226 -200 0
10 -226 -218 0
10 -226 -254 0
10 -226 -272 0
10 -244 -164 0
10 -244 -182 0
10 -244 -200 0
10 -244 -218 0
10 -244 -236 0
10 -244 -272 0
10 -262 -164 0
10 -262 -182 0
10 -262 -200 0
10 -262 -218 0
10 -262 -236 0
10 -262 -254 0
11 -154 -183 0
11 -154 -201 0
11 -154 -219 0
11 -154 -237 0
11 -154 -255 0
11 -154 -273 0
11 -172 -165 0
11 -172 -201 0
11 -172 -219 0
11 -172 -237 0
11 -172 -255 0
11 -172 -273 0
11 -190 -165 0
11 -190 -183 0
11 -190 -219 0
11 -190 -237 0
11 -190 -255 0
11 -190 -273 0
11 -208 -165 0
11 -208 -183 0
11 -208 -201 0
11 -208 -237 0
11 -208 -255 0
11 -208 -273 0
11 -226 -165 0
11 -226 -183 0
11 -226 -201 0
11 -226 -219 0
11 -226 -255 0
11 -226 -273 0
11 -244 -165 0
11 -244 -183 0
11 -244 -201 0
11 -244 -219 0
11 -244 -237 0
11 -244 -273 0
11 -262 -165 0
11 -262 -183 0
11 -262 -201 0
11 -262 -219 0
11 -262 -237 0
11 -262 -255 0
12 -154 -184 0
12 -154 -202 0
12 -154 -220 0
12 -154 -238 0
12 -154 -256 0
12 -154 -274 0
12 -172 -166 0
12 -172 -202 0
12 -172 -220 0
12 -172 -238 0
12 -172 -256 0
12 -172 -274 0
12 -190 -166 0
12 -190 -184 0
12 -190 -220 0
12 -190 -238 0
12 -190 -256 0
12 -190 -274 0
12 -208 -166 0
12 -208 -184 0
12 -208 -202 0
12 -208 -238 0
12 -208 -256 0
12 -208 -274 0
12 -226 -166 0
12 -226 -184 0
12 -226 -202 0
12 -226 -220 0
12 -226 -256 0
12 -226 -274 0
12 -244 -166 0
12 -244 -184 0
12 -244 -202 0
12 -244 -220 0
12 -244 -238 0
12 -244 -274 0
12 -262 -166 0
12 -262 -184 0
12 -262 -202 0
12 -262 -220 0
12 -262 -238 0
12 -262 -256 0
13 -154 -185 0
13 -154 -203 0
13 -154 -221 0
13 -154 -239 0
13 -154 -257 0
13 -154 -275 0
13 -172 -167 0
13 -172 -203 0
13 -172 -221 0
13 -172 -239 0
13 -172 -257 0
13 -172 -275 0
13 -190 -167 0
13 -190 -185 0
13 -190 -221 0
13 -190 -239 0
13 -190 -257 0
13 -190 -275 0
13 -208 -167 0
13 -208 -185 0
13 -208 -203 0
13 -208 -239 0
13 -208 -257 0
13 -208 -275 0
13 -226 -167 0
13 -226 -185 0
13 -226 -203 0
13 -226 -221 0
13 -226 -257 0
13 -226 -275 0
13 -244 -167 0
13 -244 -185 0
13 -244 -203 0
13 -244 -221 0
13 -244 -239 0
13 -244 -275 0
13 -262 -167 0
13 -262 -185 0
13 -262 -203 0
13 -262 -221 0
13 -262 -239 0
13 -262 -257 0
14 -154 -186 0
14 -154 -204 0
14 -154 -222 0
14 -154 -240 0
14 -154 -258 0
14 -154 -276 0
14 -172 -168 0
14 -172 -204 0
14 -172 -222 0
14 -172 -240 0
14 -172 -258 0
14 -172 -276 0
14 -190 -168 0
14 -190 -186 0
14 -190 -222 0
14 -190 -240 0
14 -190 -258 0
14 -190 -276 0
14 -208 -168 0
14 -208 -186 0
14 -208 -204 0
14 -208 -240 0
14 -208 -258 0
14 -208 -276 0
14 -226 -168 0
14 -226 -186 0
14 -226 -204 0
14 -226 -222 0
14 -226 -258 0
14 -226 -276 0
14 -244 -168 0
14 -244 -186 0
14 -244 -204 0
14 -244 -222 0
14 -244 -240 0
14 -244 -276 0
14 -262 -168 0
14 -262 -186 0
14 -262 -204 0
14 -262 -222 0
14 -262 -240 0
14 -262 -258 0
15 -154 -187 0
15 -154 -205 0
15 -154 -223 0
15 -154 -241 0
15 -154 -259 0
15 -154 -277 0
15 -172 -169 0
15 -172 -205 0
15 -172 -223 0
15 -172 -241 0
15 -172 -259 0
15 -172 -277 0
15 -190 -169 0
15 -190 -187 0
15 -190 -223 0
15 -190 -241 0
15 -190 -259 0
15 -190 -277 0
15 -208 -169 0
15 -208 -187 0
15 -208 -205 0
15 -208 -241 0
15 -208 -259 0
15 -208 -277 0
15 -226 -169 0
15 -226 -187 0
15 -226 -205 0
15 -226 -223 0
15 -226 -259 0
15 -226 -277 0
15 -244 -169 0
15 -244 -187 0
15 -244 -205 0
15 -244 -223 0
15 -244 -241 0
15 -244 -277 0
15 -262 -169 0
15 -262 -187 0
15 -262 -205 0
15 -262 -223 0
15 -262 -241 0
15 -262 -259 0
16 -154 -188 0
16 -154 -206 0
16 -154 -224 0
16 -154 -242 0
16 -154 -260 0
16 -154 -278 0
16 -172 -170 0
16 -172 -206 0
16 -172 -224 0
16 -172 -242 0
16 -172 -260 0
16 -172 -278 0
16 -190 -170 0
16 -190 -188 0
16 -190 -224 0
16 -190 -242 0
16 -190 -260 0
16 -190 -278 0
16 -208 -170 0
16 -208 -188 0
16 -208 -206 0
16 -208 -242 0
16 -208 -260 0
16 -208 -278 0
16 -226 -170 0
16 -226 -188 0
16 -226 -206 0
16 -226 -224 0
16 -226 -260 0
16 -226 -278 0
16 -244 -170 0
16 -244 -188 0
16 -244 -206 0
16 -244 -224 0
16 -244 -242 0
16 -244 -278 0
16 -262 -170 0
16 -262 -188 0
16 -262 -206 0
16 -262 -224 0
16 -262 -242 0
16 -262 -260 0
17 -154 -189 0
17 -154 -207 0
17 -154 -225 0
17 -154 -243 0
17 -154 -261 0
17 -154 -279 0
17 -172 -171 0
17 -172 -207 0
17 -172 -225 0
17 -172 -243 0
17 -172 -261 0
17 -172 -279 0
17 -190 -171 0
17 -190 -189 0
17 -190 -225 0
17 -190 -243 0
17 -190 -261 0
17 -190 -279 0
17 -208 -171 0
17 -208 -189 0
17 -208 -207 0
17 -208 -243 0
17 -208 -261 0
17 -208 -279 0
17 -226 -171 0
17 -226 -189 0
17 -226 -207 0
17 -226 -225 0
17 -226 -261 0
17 -226 -279 0
17 -244 -171 0
17 -244 -189 0
17 -244 -207 0
17 -244 -225 0
17 -244 -243 0
17 -244 -279 0
17 -262 -171 0
17 -262 -189 0
17 -262 -207 0
17 -262 -225 0
17 -262 -243 0
17 -262 -261 0
18 -155 -174 0
18 -155 -192 0
18 -155 -210 0
18 -155 -228 0
18 -155 -246 0
18 -155 -264 0
18 -173 -156 0
18 -173 -192 0
18 -173 -210 0
18 -173 -228 0
18 -173 -246 0
18 -173 -264 0
18 -191 -156 0
18 -191 -174 0
18 -191 -210 0
18 -191 -228 0
18 -191 -246 0
18 -191 -264 0
18 -209 -156 0
18 -209 -174 0
18 -209 -192 0
18 -209 -228 0
18 -209 -246 0
18 -209 -264 0
18 -227 -156 0
18 -227 -174 0
18 -227 -192 0
18 -227 -210 0
18 -227 -246 0
18 -227 -264 0
18 -245 -156 0
18 -245 -174 0
18 -245 -192 0
18 -245 -210 0
18 -245 -228 0
18 -245 -264 0
18 -263 -156 0
18 -263 -174 0
18 -263 -192 0
18 -263 -210 0
18 -263 -228 0
18 -263 -246 0
19 -155 -175 0
19 -155 -193 0
19 -155 -211 0
19 -155 -229 0
19 -155 -247 0
19 -155 -265 0
19 -173 -157 0
19 -173 -193 0
19 -173 -211 0
19 -173 -229 0
19 -173 -247 0
19 -173 -265 0
19 -191 -157 0
19 -191 -175 0
19 -191 -211 0
19 -191 -229 0
19 -191 -247 0
19 -191 -265 0
19 -209 -157 0
19 -209 -175 0
19 -209 -193 0
19 -209 -229 0
19 -209 -247 0
19 -209 -265 0
19 -227 -157 0
19 -227 -175 0
19 -227 -193 0
19 -227 -211 0
19 -227 -247 0
19 -227 -265 0
19 -245 -157 0
19 -245 -175 0
19 -245 -193 0
19 -245 -211 0
19 -245 -229 0
19 -245 -265 0
19 -263 -157 0
19 -263 -175 0
19 -263 -193 0
19 -263 -211 0
19 -263 -229 0
19 -263 -247 0
20 -155 -176 0
20 -155 -194 0
20 -155 -212 0
20 -155 -230 0
20 -155 -248 0
20 -155 -266 0
20 -173 -158 0
20 -173 -194 0
20 -173 -212 0
20 -173 -230 0
20 -173 -248 0
20 -173 -266 0
20 -191 -158 0
20 -191 -176 0
20 -191 -212 0
20 -191 -230 0
20 -191 -248 0
20 -191 -266 0
20 -209 -158 0
20 -209 -176 0
20 -209 -194 0
20 -209 -230 0
20 -209 -248 0
20 -209 -266 0
20 -227 -158 0
20 -227 -176 0
20 -227 -194 0
20 -227 -212 0
20 -227 -248 0
20 -227 -266 0
20 -245 -158 0
20 -245 -176 0
20 -245 -194 0
20 -245 -212 0
20 -245 -230 0
20 -245 -266 0
20 -263 -158 0
20 -263 -176 0
20 -263 -194 0
20 -263 -212 0
20 -263 -230 0
20 -263 -248 0
21 -155 -177 0
21 -155 -195 0
21 -155 -213 0
21 -155 -231 0
21 -155 -249 0
21 -155 -267 0
21 -173 -159 0
21 -173 -195 0
21 -173 -213 0
21 -173 -231 0
21 -173 -249 0
21 -173 -267 0
21 -191 -159 0
21 -191 -177 0
21 -191 -213 0
21 -191 -231 0
21 -191 -249 0
21 -191 -267 0
21 -209 -159 0
21 -209 -177 0
21 -209 -195 0
21 -209 -231 0
21 -209 -249 0
21 -209 -267 0
21 -227 -159 0
21 -227 -177 0
21 -227 -195 0
21 -227 -213 0
21 -227 -249 0
21 -227 -267 0
21 -245 -159 0
21 -245 -177 0
21 -245 -195 0
21 -245 -213 0
21 -245 -231 0
21 -245 -267 0
21 -263 -159 0
21 -263 -177 0
21 -263 -195 0
21 -263 -213 0
21 -263 -231 0
21 -263 -249 0
22 -155 -178 0
22 -155 -196 0
22 -155 -214 0
22 -155 -232 0
22 -155 -250 0
22 -155 -268 0
22 -173 -160 0
22 -173 -196 0
22 -173 -214 0
22 -173 -232 0
22 -173 -250 0
22 -173 -268 0
22 -191 -160 0
22 -191 -178 0
22 -191 -214 0
22 -191 -232 0
22 -191 -250 0
22 -191 -268 0
22 -209 -160 0
22 -209 -178 0
22 -209 -196 0
22 -209 -232 0
22 -209 -250 0
22 -209 -268 0
22 -227 -160 0
22 -227 -178 0
22 -227 -196 0
22 -227 -214 0
22 -227 -250 0
22 -227 -268 0
22 -245 -160 0
22 -245 -178 0
22 -245 -196 0
22 -245 -214 0
22 -245 -232 0
22 -245 -268 0
22 -263 -160 0
22 -263 -178 0
22 -263 -196 0
22 -263 -214 0
22 -263 -232 0
22 -263 -250 0
23 -155 -179 0
23 -155 -197 0
23 -155 -215 0
23 -155 -233 0
23 -155 -251 0
23 -155 -269 0
23 -173 -161 0
23 -173 -197 0
23 -173 -215 0
23 -173 -233 0
23 -173 -251 0
23 -173 -269 0
23 -191 -161 0
23 -191 -179 0
23 -191 -215 0
23 -191 -233 0
23 -191 -251 0
23 -191 -269 0
23 -209 -161 0
23 -209 -179 0
23 -209 -197 0
23 -209 -233 0
23 -209 -251 0
23 -209 -269 0
23 -227 -161 0
23 -227 -179 0
23 -227 -197 0
23 -227 -215 0
23 -227 -251 0
23 -227 -269 0
23 -245 -161 0
23 -245 -179 0
23 -245 -197 0
23 -245 -215 0
23 -245 -233 0
23 -245 -269 0
23 -263 -161 0
23 -263 -179 0
23 -263 -197 0
23 -263 -215 0
23 -263 -233 0
23 -263 -251 0
24 -155 -180 0
24 -155 -198 0
24 -155 -216 0
24 -155 -234 0
24 -155 -252 0
24 -155 -270 0
24 -173 -162 0
24 -173 -198 0
24 -173 -216 0
24 -173 -234 0
24 -173 -252 0
24 -173 -270 0
24 -191 -162 0
24 -191 -180 0
24 -191 -216 0
24 -191 -234 0
24 -191 -252 0
24 -191 -270 0
24 -209 -162 0
24 -209 -180 0
24 -209 -198 0
24 -209 -234 0
24 -209 -252 0
24 -209 -270 0
24 -227 -162 0
24 -227 -180 0
24 -227 -198 0
24 -227 -216 0
24 -227 -252 0
24 -227 -270 0
24 -245 -162 0
24 -245 -180 0
24 -245 -198 0
24 -245 -216 0
24 -245 -234 0
24 -245 -270 0
24 -263 -162 0
24 -263 -180 0
24 -263 -198 0
24 -263 -216 0
24 -263 -234 0
24 -263 -252 0
25 -155 -181 0
25 -155 -199 0
25 -155 -217 0
25 -155 -235 0
25 -155 -253 0
25 -155 -271 0
25 -173 -163 0
25 -173 -199 0
25 -173 -217 0
25 -173 -235 0
25 -173 -253 0
25 -173 -271 0
25 -191 -163 0
25 -191 -181 0
25 -191 -217 0
25 -191 -235 0
25 -191 -253 0
25 -191 -271 0
25 -209 -163 0
25 -209 -181 0
25 -209 -199 0
25 -209 -235 0
25 -209 -253 0
25 -209 -271 0
25 -227 -163 0
25 -227 -181 0
25 -227 -199 0
25 -227 -217 0
25 -227 -253 0
25 -227 -271 0
25 -245 -163 0
25 -245 -181 0
25 -245 -199 0
25 -245 -217 0
25 -245 -235 0
25 -245 -271 0
25 -263 -163 0
25 -263 -181 0
25 -263 -199 0
25 -263 -217 0
25 -263 -235 0
25 -263 -253 0
26 -155 -182 0
26 -155 -200 0
26 -155 -218 0
26 -155 -236 0
26 -155 -254 0
26 -155 -272 0
26 -173 -164 0
26 -173 -200 0
26 -173 -218 0
26 -173 -236 0
26 -173 -254 0
26 -173 -272 0
26 -191 -164 0
26 -191 -182 0
26 -191 -218 0
26 -191 -236 0
26 -191 -254 0
26 -191 -272 0
26 -209 -164 0
26 -209 -182 0
26 -209 -200 0
26 -209 -236 0
26 -209 -254 0
26 -209 -272 0
26 -227 -164 0
26 -227 -182 0
26 -227 -200 0
26 -227 -218 0
26 -227 -254 0
26 -227 -272 0
26 -245 -164 0
26 -245 -182 0
26 -245 -200 0
26 -245 -218 0
26 -245 -236 0
26 -245 -272 0
26 -263 -164 0
26 -263 -182 0
26 -263 -200 0
26 -263 -218 0
26 -263 -236 0
26 -263 -254 0
27 -155 -183 0
27 -155 -201 0
27 -155 -219 0
27 -155 -237 0
27 -155 -255 0
27 -155 -273 0
27 -173 -165 0
27 -173 -201 0
27 -173 -219 0
27 -173 -237 0
27 -173 -255 0
27 -173 -273 0
27 -191 -165 0
27 -191 -183 0
27 -191 -219 0
27 -191 -237 0
27 -191 -255 0
27 -191 -273 0
27 -209 -165 0
27 -209 -183 0
27 -209 -201 0
27 -209 -237 0
27 -209 -255 0
27 -209 -273 0
27 -227 -165 0
27 -227 -183 0
27 -227 -201 0
27 -227 -219 0
27 -227 -255 0
27 -227 -273 0
27 -245 -165 0
27 -245 -183 0
27 -245 -201 0
27 -245 -219 0
27 -245 -237 0
27 -245 -273 0
27 -263 -165 0
27 -263 -183 0
27 -263 -201 0
27 -263 -219 0
27 -263 -237 0
27 -263 -255 0
28 -155 -184 0
28 -155 -202 0
28 -155 -220 0
28 -155 -238 0
28 -155 -256 0
28 -155 -274 0
28 -173 -166 0
28 -173 -202 0
28 -173 -220 0
28 -173 -238 0
28 -173 -256 0
28 -173 -274 0
28 -191 -166 0
28 -191 -184 0
28 -191 -220 0
28 -191 -238 0
28 -191 -256 0
28 -191 -274 0
28 -209 -166 0
28 -209 -184 0
28 -209 -202 0
28 -209 -238 0
28 -209 -256 0
28 -209 -274 0
28 -227 -166 0
28 -227 -184 0
28 -227 -202 0
28 -227 -220 0
28 -227 -256 0
28 -227 -274 0
28 -245 -166 0
28 -245 -184 0
28 -245 -202 0
28 -245 -220 0
28 -245 -238 0
28 -245 -274 0
28 -263 -166 0
28 -263 -184 0
28 -263 -202 0
28 -263 -220 0
28 -263 -238 0
28 -263 -256 0
29 -155 -185 0
29 -155 -203 0
29 -155 -221 0
29 -155 -239 0
29 -155 -257 0
29 -155 -275 0
29 -173 -167 0
29 -173 -203 0
29 -173 -221 0
29 -173 -239 0
29 -173 -257 0
29 -173 -275 0
29 -191 -167 0
29 -191 -185 0
29 -191 -221 0
29 -191 -239 0
29 -191 -257 0
29 -191 -275 0
29 -209 -167 0
29 -209 -185 0
29 -209 -203 0
29 -209 -239 0
29 -209 -257 0
29 -209 -275 0
29 -227 -167 0
29 -227 -185 0
29 -227 -203 0
29 -227 -221 0
29 -227 -257 0
29 -227 -275 0
29 -245 -167 0
29 -245 -185 0
29 -245 -203 0
29 -245 -221 0
29 -245 -239 0
29 -245 -275 0
29 -263 -167 0
29 -263 -185 0
29 -263 -203 0
29 -263 -221 0
29 -263 -239 0
29 -263 -257 0
30 -155 -186 0
30 -155 -204 0
30 -155 -222 0
30 -155 -240 0
30 -155 -258 0
30 -155 -276 0
30 -173 -168 0
30 -173 -204 0
30 -173 -222 0
30 -173 -240 0
30 -173 -258 0
30 -173 -276 0
30 -191 -168 0
30 -191 -186 0
30 -191 -222 0
30 -191 -240 0
30 -191 -258 0
30 -191 -276 0
30 -209 -168 0
30 -209 -186 0
30 -209 -204 0
30 -209 -240 0
30 -209 -258 0
30 -209 -276 0
30 -227 -168 0
30 -227 -186 0
30 -227 -204 0
30 -227 -222 0
30 -227 -258 0
30 -227 -276 0
30 -245 -168 0
30 -245 -186 0
30 -245 -204 0
30 -245 -222 0
30 -245 -240 0
30 -245 -276 0
30 -263 -168 0
30 -263 -186 0
30 -263 -204 0
30 -263 -222 0
30 -263 -240 0
30 -263 -258 0
31 -155 -187 0
31 -155 -205 0
31 -155 -223 0
31 -155 -241 0
31 -155 -259 0
31 -155 -277 0
31 -173 -169 0
31 -173 -205 0
31 -173 -223 0
31 -173 -241 0
31 -173 -259 0
31 -173 -277 0
31 -191 -169 0
31 -191 -187 0
31 -191 -223 0
31 -191 -241 0
31 -191 -259 0
31 -191 -277 0
31 -209 -169 0
31 -209 -187 0
31 -209 -205 0
31 -209 -241 0
31 -209 -259 0
31 -209 -277 0
31 -227 -169 0
31 -227 -187 0
31 -227 -205 0
31 -227 -223 0
31 -227 -259 0
31 -227 -277 0
31 -245 -169 0
31 -245 -187 0
31 -245 -205 0
31 -245 -223 0
31 -245 -241 0
31 -245 -277 0
31 -263 -169 0
31 -263 -187 0
31 -263 -205 0
31 -263 -223 0
31 -263 -241 0
31 -263 -259 0
32 -155 -188 0
32 -155 -206 0
32 -155 -224 0
32 -155 -242 0
32 -155 -260 0
32 -155 -278 0
32 -173 -170 0
32 -173 -206 0
32 -173 -224 0
32 -173 -242 0
32 -173 -260 0
32 -173 -278 0
32 -191 -170 0
32 -191 -188 0
32 -191 -224 0
32 -191 -242 0
32 -191 -260 0
32 -191 -278 0
32 -209 -170 0
32 -209 -188 0
32 -209 -206 0
32 -209 -242 0
32 -209 -260 0
32 -209 -278 0
32 -227 -170 0
32 -227 -188 0
32 -227 -206 0
32 -227 -224 0
32 -227 -260 0
32 -227 -278 0
32 -245 -170 0
32 -245 -188 0
32 -245 -206 0
32 -245 -224 0
32 -245 -242 0
32 -245 -278 0
32 -263 -170 0
32 -263 -188 0
32 -263 -206 0
32 -263 -224 0
32 -263 -242 0
32 -263 -260 0
33 -155 -189 0
33 -155 -207 0
33 -155 -225 0
33 -155 -243 0
33 -155 -261 0
33 -155 -279 0
33 -173 -171 0
33 -173 -207 0
33 -173 -225 0
33 -173 -243 0
33 -173 -261 0
33 -173 -279 0
33 -191 -171 0
33 -191 -189 0
33 -191 -225 0
33 -191 -243 0
33 -191 -261 0
33 -191 -279 0
33 -209 -171 0
33 -209 -189 0
33 -209 -207 0
33 -209 -243 0
33 -209 -261 0
33 -209 -279 0
33 -227 -171 0
33 -227 -189 0
33 -227 -207 0
33 -227 -225 0
33 -227 -261 0
33 -227 -279 0
33 -245 -171 0
33 -245 -189 0
33 -245 -207 0
33 -245 -225 0
33 -245 -243 0
33 -245 -279 0
33 -263 -171 0
33 -263 -189 0
33 -263 -207 0
33 -263 -225 0
33 -263 -243 0
33 -263 -261 0
34 -156 -175 0
34 -156 -193 0
34 -156 -211 0
34 -156 -229 0
34 -156 -247 0
34 -156 -265 0
34 -174 -157 0
34 -174 -193 0
34 -174 -211 0
34 -174 -229 0
34 -174 -247 0
34 -174 -265 0
34 -192 -157 0
34 -192 -175 0
34 -192 -211 0
34 -192 -229 0
34 -192 -247 0
34 -192 -265 0
34 -210 -157 0
34 -210 -175 0
34 -210 -193 0
34 -210 -229 0
34 -210 -247 0
34 -210 -265 0
34 -228 -157 0
34 -228 -175 0
34 -228 -193 0
34 -228 -211 0
34 -228 -247 0
34 -228 -265 0
34 -246 -157 0
34 -246 -175 0
34 -246 -193 0
34 -246 -211 0
34 -246 -229 0
34 -246 -265 0
34 -264 -157 0
34 -264 -175 0
34 -264 -193 0
34 -264 -211 0
34 -264 -229 0
34 -264 -247 0
35 -156 -176 0
35 -156 -194 0
35 -156 -212 0
35 -156 -230 0
35 -156 -248 0
35 -156 -266 0
35 -174 -158 0
35 -174 -194 0
35 -174 -212 0
35 -174 -230 0
35 -174 -248 0
35 -174 -266 0
35 -192 -158 0
35 -192 -176 0
35 -192 -212 0
35 -192 -230 0
35 -192 -248 0
35 -192 -266 0
35 -210 -158 0
35 -210 -176 0
35 -210 -194 0
35 -210 -230 0
35 -210 -248 0
35 -210 -266 0
35 -228 -158 0
35 -228 -176 0
35 -228 -194 0
35 -228 -212 0
35 -228 -248 0
35 -228 -266 0
35 -246 -158 0
35 -246 -176 0
35 -246 -194 0
35 -246 -212 0
35 -246 -230 0
35 -246 -266 0
35 -264 -158 0
35 -264 -176 0
35 -264 -194 0
35 -264 -212 0
35 -264 -230 0
35 -264 -248 0
36 -156 -177 0
36 -156 -195 0
36 -156 -213 0
36 -156 -231 0
36 -156 -249 0
36 -156 -267 0
36 -174 -159 0
36 -174 -195 0
36 -174 -213 0
36 -174 -231 0
36 -174 -249 0
36 -174 -267 0
36 -192 -159 0
36 -192 -177 0
36 -192 -213 0
36 -192 -231 0
36 -192 -249 0
36 -192 -267 0
36 -210 -159 0
36 -210 -177 0
36 -210 -195 0
36 -210 -231 0
36 -210 -249 0
36 -210 -267 0
36 -228 -159 0
36 -228 -177 0
36 -228 -195 0
36 -228 -213 0
36 -228 -249 0
36 -228 -267 0
36 -246 -159 0
36 -246 -177 0
36 -246 -195 0
36 -246 -213 0
36 -246 -231 0
36 -246 -267 0
36 -264 -159 0
36 -264 -177 0
36 -264 -195 0
36 -264 -213 0
36 -264 -231 0
36 -264 -249 0
37 -156 -178 0
37 -156 -196 0
37 -156 -214 0
37 -156 -232 0
37 -156 -250 0
37 -156 -268 0
37 -174 -160 0
37 -174 -196 0
37 -174 -214 0
37 -174 -232 0
37 -174 -250 0
37 -174 -268 0
37 -192 -160 0
37 -192 -178 0
37 -192 -214 0
37 -192 -232 0
37 -192 -250 0
37 -192 -268 0
37 -210 -160 0
37 -210 -178 0
37 -210 -196 0
37 -210 -232 0
37 -210 -250 0
37 -210 -268 0
37 -228 -160 0
37 -228 -178 0
37 -228 -196 0
37 -228 -214 0
37 -228 -250 0
37 -228 -268 0
37 -246 -160 0
37 -246 -178 0
37 -246 -196 0
37 -246 -214 0
37 -246 -232 0
37 -246 -268 0
37 -264 -160 0
37 -264 -178 0
37 -264 -196 0
37 -264 -214 0
37 -264 -232 0
37 -264 -250 0
38 -156 -179 0
38 -156 -197 0
38 -156 -215 0
38 -156 -233 0
38 -156 -251 0
38 -156 -269 0
38 -174 -161 0
38 -174 -197 0
38 -174 -215 0
38 -174 -233 0
38 -174 -251 0
38 -174 -269 0
38 -192 -161 0
38 -192 -179 0
38 -192 -215 0
38 -192 -233 0
38 -192 -251 0
38 -192 -269 0
38 -210 -161 0
38 -210 -179 0
38 -210 -197 0
38 -210 -233 0
38 -210 -251 0
38 -210 -269 0
38 -228 -161 0
38 -228 -179 0
38 -228 -197 0
38 -228 -215 0
38 -228 -251 0
38 -228 -269 0
38 -246 -161 0
38 -246 -179 0
38 -246 -197 0
38 -246 -215 0
38 -246 -233 0
38 -246 -269 0
38 -264 -161 0
38 -264 -179 0
38 -264 -197 0
38 -264 -215 0
38 -264 -233 0
38 -264 -251 0
39 -156 -180 0
39 -156 -198 0
39 -156 -216 0
39 -156 -234 0
39 -156 -252 0
39 -156 -270 0
39 -174 -162 0
39 -174 -198 0
39 -174 -216 0
39 -174 -234 0
39 -174 -252 0
39 -174 -270 0
39 -192 -162 0
39 -192 -180 0
39 -192 -216 0
39 -192 -234 0
39 -192 -252 0
39 -192 -270 0
39 -210 -162 0
39 -210 -180 0
39 -210 -198 0
39 -210 -234 0
39 -210 -252 0
39 -210 -270 0
39 -228 -162 0
39 -228 -180 0
39 -228 -198 0
39 -228 -216 0
39 -228 -252 0
39 -228 -270 0
39 -246 -162 0
39 -246 -180 0
39 -246 -198 0
39 -246 -216 0
39 -246 -234 0
39 -246 -270 0
39 -264 -162 0
39 -264 -180 0
39 -264 -198 0
39 -264 -216 0
39 -264 -234 0
39 -264 -252 0
40 -156 -181 0
40 -156 -199 0
40 -156 -217 0
40 -156 -235 0
40 -156 -253 0
40 -156 -271 0
40 -174 -163 0
40 -174 -199 0
40 -174 -217 0
40 -174 -235 0
40 -174 -253 0
40 -174 -271 0
40 -192 -163 0
40 -192 -181 0
40 -192 -217 0
40 -192 -235 0
40 -192 -253 0
40 -192 -271 0
40 -210 -163 0
40 -210 -181 0
40 -210 -199 0
40 -210 -235 0
40 -210 -253 0
40 -210 -271 0
40 -228 -163 0
40 -228 -181 0
40 -228 -199 0
40 -228 -217 0
40 -228 -253 0
40 -228 -271 0
40 -246 -163 0
40 -246 -181 0
40 -246 -199 0
40 -246 -217 0
40 -246 -235 0
40 -246 -271 0
40 -264 -163 0
40 -264 -181 0
40 -264 -199 0
40 -264 -217 0
40 -264 -235 0
40 -264 -253 0
41 -156 -182 0
41 -156 -200 0
41 -156 -218 0
41 -156 -236 0
41 -156 -254 0
41 -156 -272 0
41 -174 -164 0
41 -174 -200 0
41 -174 -218 0
41 -174 -236 0
41 -174 -254 0
41 -174 -272 0
41 -192 -164 0
41 -192 -182 0
41 -192 -218 0
41 -192 -236 0
41 -192 -254 0
41 -192 -272 0
41 -210 -164 0
41 -210 -182 0
41 -210 -200 0
41 -210 -236 0
41 -210 -254 0
41 -210 -272 0
41 -228 -164 0
41 -228 -182 0
41 -228 -200 0
41 -228 -218 0
41 -228 -254 0
41 -228 -272 0
41 -246 -164 0
41 -246 -182 0
41 -246 -200 0
41 -246 -218 0
41 -246 -236 0
41 -246 -272 0
41 -264 -164 0
41 -264 -182 0
41 -264 -200 0
41 -264 -218 0
41 -264 -236 0
41 -264 -254 0
42 -156 -183 0
42 -156 -201 0
42 -156 -219 0
42 -156 -237 0
42 -156 -255 0
42 -156 -273 0
42 -174 -165 0
42 -174 -201 0
42 -174 -219 0
42 -174 -237 0
42 -174 -255 0
42 -174 -273 0
42 -192 -165 0
42 -192 -183 0
42 -192 -219 0
42 -192 -237 0
42 -192 -255 0
42 -192 -273 0
42 -210 -165 0
42 -210 -183 0
42 -210 -201 0
42 -210 -237 0
42 -210 -255 0
42 -210 -273 0
42 -228 -165 0
42 -228 -183 0
42 -228 -201 0
42 -228 -219 0
42 -228 -255 0
42 -228 -273 0
42 -246 -165 0
42 -246 -183 0
42 -246 -201 0
42 -246 -219 0
42 -246 -237 0
42 -246 -273 0
42 -264 -165 0
42 -264 -183 0
42 -264 -201 0
42 -264 -219 0
42 -264 -237 0
42 -264 -255 0
43 -156 -184 0
43 -156 -202 0
43 -156 -220 0
43 -156 -238 0
43 -156 -256 0
43 -156 -274 0
43 -174 -166 0
43 -174 -202 0
43 -174 -220 0
43 -174 -238 0
43 -174 -256 0
43 -174 -274 0
43 -192 -166 0
43 -192 -184 0
43 -192 -220 0
43 -192 -238 0
43 -192 -256 0
43 -192 -274 0
43 -210 -166 0
43 -210 -184 0
43 -210 -202 0
43 -210 -238 0
43 -210 -256 0
43 -210 -274 0
43 -228 -166 0
43 -228 -184 0
43 -228 -202 0
43 -228 -220 0
43 -228 -256 0
43 -228 -274 0
43 -246 -166 0
43 -246 -184 0
43 -246 -202 0
43 -246 -220 0
43 -246 -238 0
43 -246 -274 0
43 -264 -166 0
43 -264 -184 0
43 -264 -202 0
43 -264 -220 0
43 -264 -238 0
43 -264 -256 0
44 -156 -185 0
44 -156 -203 0
44 -156 -221 0
44 -156 -239 0
44 -156 -257 0
44 -156 -275 0
44 -174 -167 0
44 -174 -203 0
44 -174 -221 0
44 -174 -239 0
44 -174 -257 0
44 -174 -275 0
44 -192 -167 0
44 -192 -185 0
44 -192 -221 0
44 -192 -239 0
44 -192 -257 0
44 -192 -275 0
44 -210 -167 0
44 -210 -185 0
44 -210 -203 0
44 -210 -239 0
44 -210 -257 0
44 -210 -275 0
44 -228 -167 0
44 -228 -185 0
44 -228 -203 0
44 -228 -221 0
44 -228 -257 0
44 -228 -275 0
44 -246 -167 0
44 -246 -185 0
44 -246 -203 0
44 -246 -221 0
44 -246 -239 0
44 -246 -275 0
44 -264 -167 0
44 -264 -185 0
44 -264 -203 0
44 -264 -221 0
44 -264 -239 0
44 -264 -257 0
45 -156 -186 0
45 -156 -204 0
45 -156 -222 0
45 -156 -240 0
45 -156 -258 0
45 -156 -276 0
45 -174 -168 0
45 -174 -204 0
45 -174 -222 0
45 -174 -240 0
45 -174 -258 0
45 -174 -276 0
45 -192 -168 0
45 -192 -186 0
45 -192 -222 0
45 -192 -240 0
45 -192 -258 0
45 -192 -276 0
45 -210 -168 0
45 -210 -186 0
45 -210 -204 0
45 -210 -240 0
45 -210 -258 0
45 -210 -276 0
45 -228 -168 0
45 -228 -186 0
45 -228 -204 0
45 -228 -222 0
45 -228 -258 0
45 -228 -276 0
45 -246 -168 0
45 -246 -186 0
45 -246 -204 0
45 -246 -222 0
45 -246 -240 0
45 -246 -276 0
45 -264 -168 0
45 -264 -186 0
45 -264 -204 0
45 -264 -222 0
45 -264 -240 0
45 -264 -258 0
46 -156 -187 0
46 -156 -205 0
46 -156 -223 0
46 -156 -241 0
46 -156 -259 0
46 -156 -277 0
46 -174 -169 0
46 -174 -205 0
46 -174 -223 0
46 -174 -241 0
46 -174 -259 0
46 -174 -277 0
46 -192 -169 0
46 -192 -187 0
46 -192 -223 0
46 -192 -241 0
46 -192 -259 0
46 -192 -277 0
46 -210 -169 0
46 -210 -187 0
46 -210 -205 0
46 -210 -241 0
46 -210 -259 0
46 -210 -277 0
46 -228 -169 0
46 -228 -187 0
46 -228 -205 0
46 -228 -223 0
46 -228 -259 0
46 -228 -277 0
46 -246 -169 0
46 -246 -187 0
46 -246 -205 0
46 -246 -223 0
46 -246 -241 0
46 -246 -277 0
46 -264 -169 0
46 -264 -187 0
46 -264 -205 0
46 -264 -223 0
46 -264 -241 0
46 -264 -259 0
47 -156 -188 0
47 -156 -206 0
47 -156 -224 0
47 -156 -242 0
47 -156 -260 0
47 -156 -278 0
47 -174 -170 0
47 -174 -206 0
47 -174 -224 0
47 -174 -242 0
47 -174 -260 0
47 -174 -278 0
47 -192 -170 0
47 -192 -188 0
47 -192 -224 0
47 -192 -242 0
47 -192 -260 0
47 -192 -278 0
47 -210 -170 0
47 -210 -188 0
47 -210 -206 0
47 -210 -242 0
47 -210 -260 0
47 -210 -278 0
47 -228 -170 0
47 -228 -188 0
47 -228 -206 0
47 -228 -224 0
47 -228 -260 0
47 -228 -278 0
47 -246 -170 0
47 -246 -188 0
47 -246 -206 0
47 -246 -224 0
47 -246 -242 0
47 -246 -278 0
47 -264 -170 0
47 -264 -188 0
47 -264 -206 0
47 -264 -224 0
47 -264 -242 0
47 -264 -260 0
48 -156 -189 0
48 -156 -207 0
48 -156 -225 0
48 -156 -243 0
48 -156 -261 0
48 -156 -279 0
48 -174 -171 0
48 -174 -207 0
48 -174 -225 0
48 -174 -243 0
48 -174 -261 0
48 -174 -279 0
48 -192 -171 0
48 -192 -189 0
48 -192 -225 0
48 -192 -243 0
48 -192 -261 0
48 -192 -279 0
48 -210 -171 0
48 -210 -189 0
48 -210 -207 0
48 -210 -243 0
48 -210 -261 0
48 -210 -279 0
48 -228 -171 0
48 -228 -189 0
48 -228 -207 0
48 -228 -225 0
48 -228 -261 0
48 -228 -279 0
48 -246 -171 0
48 -246 -189 0
48 -246 -207 0
48 -246 -225 0
48 -246 -243 0
48 -246 -279 0
48 -264 -171 0
48 -264 -189 0
48 -264 -207 0
48 -264 -225 0
48 -264 -243 0
48 -264 -261 0
49 -157 -176 0
49 -157 -194 0
49 -157 -212 0
49 -157 -230 0
49 -157 -248 0
49 -157 -266 0
49 -175 -158 0
49 -175 -194 0
49 -175 -212 0
49 -175 -230 0
49 -175 -248 0
49 -175 -266 0
49 -193 -158 0
49 -193 -176 0
49 -193 -212 0
49 -193 -230 0
49 -193 -248 0
49 -193 -266 0
49 -211 -158 0
49 -211 -176 0
49 -211 -194 0
49 -211 -230 0
49 -211 -248 0
49 -211 -266 0
49 -229 -158 0
49 -229 -176 0
49 -229 -194 0
49 -229 -212 0
49 -229 -248 0
49 -229 -266 0
49 -247 -158 0
49 -247 -176 0
49 -247 -194 0
49 -247 -212 0
49 -247 -230 0
49 -247 -266 0
49 -265 -158 0
49 -265 -176 0
49 -265 -194 0
49 -265 -212 0
49 -265 -230 0
49 -265 -248 0
50 -157 -177 0
50 -157 -195 0
50 -157 -213 0
50 -157 -231 0
50 -157 -249 0
50 -157 -267 0
50 -175 -159 0
50 -175 -195 0
50 -175 -213 0
50 -175 -231 0
50 -175 -249 0
50 -175 -267 0
50 -193 -159 0
50 -193 -177 0
50 -193 -213 0
50 -193 -231 0
50 -193 -249 0
50 -193 -267 0
50 -211 -159 0
50 -211 -177 0
50 -211 -195 0
50 -211 -231 0
50 -211 -249 0
50 -211 -267 0
50 -229 -159 0
50 -229 -177 0
50 -229 -195 0
50 -229 -213 0
50 -229 -249 0
50 -229 -267 0
50 -247 -159 0
50 -247 -177 0
50 -247 -195 0
50 -247 -213 0
50 -247 -231 0
50 -247 -267 0
50 -265 -159 0
50 -265 -177 0
50 -265 -195 0
50 -265 -213 0
50 -265 -231 0
50 -265 -249 0
51 -157 -178 0
51 -157 -196 0
51 -157 -214 0
51 -157 -232 0
51 -157 -250 0
51 -157 -268 0
51 -175 -160 0
51 -175 -196 0
51 -175 -214 0
51 -175 -232 0
51 -175 -250 0
51 -175 -268 0
51 -193 -160 0
51 -193 -178 0
51 -193 -214 0
51 -193 -232 0
51 -193 -250 0
51 -193 -268 0
51 -211 -160 0
51 -211 -178 0
51 -211 -196 0
51 -211 -232 0
51 -211 -250 0
51 -211 -268 0
51 -229 -160 0
51 -229 -178 0
51 -229 -196 0
51 -229 -214 0
51 -229 -250 0
51 -229 -268 0
51 -247 -160 0
51 -247 -178 0
51 -247 -196 0
51 -247 -214 0
51 -247 -232 0
51 -247 -268 0
51 -265 -160 0
51 -265 -178 0
51 -265 -196 0
51 -265 -214 0
51 -265 -232 0
51 -265 -250 0
52 -157 -179 0
52 -157 -197 0
52 -157 -215 0
52 -157 -233 0
52 -157 -251 0
52 -157 -269 0
52 -175 -161 0
52 -175 -197 0
52 -175 -215 0
52 -175 -233 0
52 -175 -251 0
52 -175 -269 0
52 -193 -161 0
52 -193 -179 0
52 -193 -215 0
52 -193 -233 0
52 -193 -251 0
52 -193 -269 0
52 -211 -161 0
52 -211 -179 0
52 -211 -197 0
52 -211 -233 0
52 -211 -251 0
52 -211 -269 0
52 -229 -161 0
52 -229 -179 0
52 -229 -197 0
52 -229 -215 0
52 -229 -251 0
52 -229 -269 0
52 -247 -161 0
52 -247 -179 0
52 -247 -197 0
52 -247 -215 0
52 -247 -233 0
52 -247 -269 0
52 -265 -161 0
52 -265 -179 0
52 -265 -197 0
52 -265 -215 0
52 -265 -233 0
52 -265 -251 0
53 -157 -180 0
53 -157 -198 0
53 -157 -216 0
53 -157 -234 0
53 -157 -252 0
53 -157 -270 0
53 -175 -162 0
53 -175 -198 0
53 -175 -216 0
53 -175 -234 0
53 -175 -252 0
53 -175 -270 0
53 -193 -162 0
53 -193 -180 0
53 -193 -216 0
53 -193 -234 0
53 -193 -252 0
53 -193 -270 0
53 -211 -162 0
53 -211 -180 0
53 -211 -198 0
53 -211 -234 0
53 -211 -252 0
53 -211 -270 0
53 -229 -162 0
53 -229 -180 0
53 -229 -198 0
53 -229 -216 0
53 -229 -252 0
53 -229 -270 0
53 -247 -162 0
53 -247 -180 0
53 -247 -198 0
53 -247 -216 0
53 -247 -234 0
53 -247 -270 0
53 -265 -162 0
53 -265 -180 0
53 -265 -198 0
53 -265 -216 0
53 -265 -234 0
53 -265 -252 0
54 -157 -181 0
54 -157 -199 0
54 -157 -217 0
54 -157 -235 0
54 -157 -253 0
54 -157 -271 0
54 -175 -163 0
54 -175 -199 0
54 -175 -217 0
54 -175 -235 0
54 -175 -253 0
54 -175 -271 0
54 -193 -163 0
54 -193 -181 0
54 -193 -217 0
54 -193 -235 0
54 -193 -253 0
54 -193 -271 0
54 -211 -163 0
54 -211 -181 0
54 -211 -199 0
54 -211 -235 0
54 -211 -253 0
54 -211 -271 0
54 -229 -163 0
54 -229 -181 0
54 -229 -199 0
54 -229 -217 0
54 -229 -253 0
54 -229 -271 0
54 -247 -163 0
54 -247 -181 0
54 -247 -199 0
54 -247 -217 0
54 -247 -235 0
54 -247 -271 0
54 -265 -163 0
54 -265 -181 0
54 -265 -199 0
54 -265 -217 0
54 -265 -235 0
54 -265 -253 0
55 -157 -182 0
55 -157 -200 0
55 -157 -218 0
55 -157 -236 0
55 -157 -254 0
55 -157 -272 0
55 -175 -164 0
55 -175 -200 0
55 -175 -218 0
55 -175 -236 0
55 -175 -254 0
55 -175 -272 0
55 -193 -164 0
55 -193 -182 0
55 -193 -218 0
55 -193 -236 0
55 -193 -254 0
55 -193 -272 0
55 -211 -164 0
55 -211 -182 0
55 -211 -200 0
55 -211 -236 0
55 -211 -254 0
55 -211 -272 0
55 -229 -164 0
55 -229 -182 0
55 -229 -200 0
55 -229 -218 0
55 -229 -254 0
55 -229 -272 0
55 -247 -164 0
55 -247 -182 0
55 -247 -200 0
55 -247 -218 0
55 -247 -236 0
55 -247 -272 0
55 -265 -164 0
55 -265 -182 0
55 -265 -200 0
55 -265 -218 0
55 -265 -236 0
55 -265 -254 0
56 -157 -183 0
56 -157 -201 0
56 -157 -219 0
56 -157 -237 0
56 -157 -255 0
56 -157 -273 0
56 -175 -165 0
56 -175 -201 0
56 -175 -219 0
56 -175 -237 0
56 -175 -255 0
56 -175 -273 0
56 -193 -165 0
56 -193 -183 0
56 -193 -219 0
56 -193 -237 0
56 -193 -255 0
56 -193 -273 0
56 -211 -165 0
56 -211 -183 0
56 -211 -201 0
56 -211 -237 0
56 -211 -255 0
56 -211 -273 0
56 -229 -165 0
56 -229 -183 0
56 -229 -201 0
56 -229 -219 0
56 -229 -255 0
56 -229 -273 0
56 -247 -165 0
56 -247 -183 0
56 -247 -201 0
56 -247 -219 0
56 -247 -237 0
56 -247 -273 0
56 -265 -165 0
56 -265 -183 0
56 -265 -201 0
56 -265 -219 0
56 -265 -237 0
56 -265 -255 0
57 -157 -184 0
57 -157 -202 0
57 -157 -220 0
57 -157 -238 0
57 -157 -256 0
57 -157 -274 0
57 -175 -166 0
57 -175 -202 0
57 -175 -220 0
57 -175 -238 0
57 -175 -256 0
57 -175 -274 0
57 -193 -166 0
57 -193 -184 0
57 -193 -220 0
57 -193 -238 0
57 -193 -256 0
57 -193 -274 0
57 -211 -166 0
57 -211 -184 0
57 -211 -202 0
57 -211 -238 0
57 -211 -256 0
57 -211 -274 0
57 -229 -166 0
57 -229 -184 0
57 -229 -202 0
57 -229 -220 0
57 -229 -256 0
57 -229 -274 0
57 -247 -166 0
57 -247 -184 0
57 -247 -202 0
57 -247 -220 0
57 -247 -238 0
57 -247 -274 0
57 -265 -166 0
57 -265 -184 0
57 -265 -202 0
57 -265 -220 0
57 -265 -238 0
57 -265 -256 0
58 -157 -185 0
58 -157 -203 0
58 -157 -221 0
58 -157 -239 0
58 -157 -257 0
58 -157 -275 0
58 -175 -167 0
58 -175 -203 0
58 -175 -221 0
58 -175 -239 0
58 -175 -257 0
58 -175 -275 0
58 -193 -167 0
58 -193 -185 0
58 -193 -221 0
58 -193 -239 0
58 -193 -257 0
58 -193 -275 0
58 -211 -167 0
58 -211 -185 0
58 -211 -203 0
58 -211 -239 0
58 -211 -257 0
58 -211 -275 0
58 -229 -167 0
58 -229 -185 0
58 -229 -203 0
58 -229 -221 0
58 -229 -257 0
58 -229 -275 0
58 -247 -167 0
58 -247 -185 0
58 -247 -203 0
58 -247 -221 0
58 -247 -239 0
58 -247 -275 0
58 -265 -167 0
58 -265 -185 0
58 -265 -203 0
58 -265 -221 0
58 -265 -239 0
58 -265 -257 0
59 -157 -186 0
59 -157 -204 0
59 -157 -222 0
59 -157 -240 0
59 -157 -258 0
59 -157 -276 0
59 -175 -168 0
59 -175 -204 0
59 -175 -222 0
59 -175 -240 0
59 -175 -258 0
59 -175 -276 0
59 -193 -168 0
59 -193 -186 0
59 -193 -222 0
59 -193 -240 0
59 -193 -258 0
59 -193 -276 0
59 -211 -168 0
59 -211 -186 0
59 -211 -204 0
59 -211 -240 0
59 -211 -258 0
59 -211 -276 0
59 -229 -168 0
59 -229 -186 0
59 -229 -204 0
59 -229 -222 0
59 -229 -258 0
59 -229 -276 0
59 -247 -168 0
59 -247 -186 0
59 -247 -204 0
59 -247 -222 0
59 -247 -240 0
59 -247 -276 0
59 -265 -168 0
59 -265 -186 0
59 -265 -204 0
59 -265 -222 0
59 -265 -240 0
59 -265 -258 0
60 -157 -187 0
60 -157 -205 0
60 -157 -223 0
60 -157 -241 0
60 -157 -259 0
60 -157 -277 0
60 -175 -169 0
60 -175 -205 0
60 -175 -223 0
60 -175 -241 0
60 -175 -259 0
60 -175 -277 0
60 -193 -169 0
60 -193 -187 0
60 -193 -223 0
60 -193 -241 0
60 -193 -259 0
60 -193 -277 0
60 -211 -169 0
60 -211 -187 0
60 -211 -205 0
60 -211 -241 0
60 -211 -259 0
60 -211 -277 0
60 -229 -169 0
60 -229 -187 0
60 -229 -205 0
60 -229 -223 0
60 -229 -259 0
60 -229 -277 0
60 -247 -169 0
60 -247 -187 0
60 -247 -205 0
60 -247 -223 0
60 -247 -241 0
60 -247 -277 0
60 -265 -169 0
60 -265 -187 0
60 -265 -205 0
60 -265 -223 0
60 -265 -241 0
60 -265 -259 0
61 -157 -188 0
61 -157 -206 0
61 -157 -224 0
61 -157 -242 0
61 -157 -260 0
61 -157 -278 0
61 -175 -170 0
61 -175 -206 0
61 -175 -224 0
61 -175 -242 0
61 -175 -260 0
61 -175 -278 0
61 -193 -170 0
61 -193 -188 0
61 -193 -224 0
61 -193 -242 0
61 -193 -260 0
61 -193 -278 0
61 -211 -170 0
61 -211 -188 0
61 -211 -206 0
61 -211 -242 0
61 -211 -260 0
61 -211 -278 0
61 -229 -170 0
61 -229 -188 0
61 -229 -206 0
61 -229 -224 0
61 -229 -260 0
61 -229 -278 0
61 -247 -170 0
61 -247 -188 0
61 -247 -206 0
61 -247 -224 0
61 -247 -242 0
61 -247 -278 0
61 -265 -170 0
61 -265 -188 0
61 -265 -206 0
61 -265 -224 0
61 -265 -242 0
61 -265 -260 0
62 -157 -189 0
62 -157 -207 0
62 -157 -225 0
62 -157 -243 0
62 -157 -261 0
62 -157 -279 0
62 -175 -171 0
62 -175 -207 0
62 -175 -225 0
62 -175 -243 0
62 -175 -261 0
62 -175 -279 0
62 -193 -171 0
62 -193 -189 0
62 -193 -225 0
62 -193 -243 0
62 -193 -261 0
62 -193 -279 0
62 -211 -171 0
62 -211 -189 0
62 -211 -207 0
62 -211 -243 0
62 -211 -261 0
62 -211 -279 0
62 -229 -171 0
62 -229 -189 0
62 -229 -207 0
62 -229 -225 0
62 -229 -261 0
62 -229 -279 0
62 -247 -171 0
62 -247 -189 0
62 -247 -207 0
62 -247 -225 0
62 -247 -243 0
62 -247 -279 0
62 -265 -171 0
62 -265 -189 0
62 -265 -207 0
62 -265 -225 0
62 -265 -243 0
62 -265 -261 0
63 -158 -177 0
63 -158 -195 0
63 -158 -213 0
63 -158 -231 0
63 -158 -249 0
63 -158 -267 0
63 -176 -159 0
63 -176 -195 0
63 -176 -213 0
63 -176 -231 0
63 -176 -249 0
63 -176 -267 0
63 -194 -159 0
63 -194 -177 0
63 -194 -213 0
63 -194 -231 0
63 -194 -249 0
63 -194 -267 0
63 -212 -159 0
63 -212 -177 0
63 -212 -195 0
63 -212 -231 0
63 -212 -249 0
63 -212 -267 0
63 -230 -159 0
63 -230 -177 0
63 -230 -195 0
63 -230 -213 0
63 -230 -249 0
63 -230 -267 0
63 -248 -159 0
63 -248 -177 0
63 -248 -195 0
63 -248 -213 0
63 -248 -231 0
63 -248 -267 0
63 -266 -159 0
63 -266 -177 0
63 -266 -195 0
63 -266 -213 0
63 -266 -231 0
63 -266 -249 0
64 -158 -178 0
64 -158 -196 0
64 -158 -214 0
64 -158 -232 0
64 -158 -250 0
64 -158 -268 0
64 -176 -160 0
64 -176 -196 0
64 -176 -214 0
64 -176 -232 0
64 -176 -250 0
64 -176 -268 0
64 -194 -160 0
64 -194 -178 0
64 -194 -214 0
64 -194 -232 0
64 -194 -250 0
64 -194 -268 0
64 -212 -160 0
64 -212 -178 0
64 -212 -196 0
64 -212 -232 0
64 -212 -250 0
64 -212 -268 0
64 -230 -160 0
64 -230 -178 0
64 -230 -196 0
64 -230 -214 0
64 -230 -250 0
64 -230 -268 0
64 -248 -160 0
64 -248 -178 0
64 -248 -196 0
64 -248 -214 0
64 -248 -232 0
64 -248 -268 0
64 -266 -160 0
64 -266 -178 0
64 -266 -196 0
64 -266 -214 0
64 -266 -232 0
64 -266 -250 0
65 -158 -179 0
65 -158 -197 0
65 -158 -215 0
65 -158 -233 0
65 -158 -251 0
65 -158 -269 0
65 -176 -161 0
65 -176 -197 0
65 -176 -215 0
65 -176 -233 0
65 -176 -251 0
65 -176 -269 0
65 -194 -161 0
65 -194 -179 0
65 -194 -215 0
65 -194 -233 0
65 -194 -251 0
65 -194 -269 0
65 -212 -161 0
65 -212 -179 0
65 -212 -197 0
65 -212 -233 0
65 -212 -251 0
65 -212 -269 0
65 -230 -161 0
65 -230 -179 0
65 -230 -197 0
65 -230 -215 0
65 -230 -251 0
65 -230 -269 0
65 -248 -161 0
65 -248 -179 0
65 -248 -197 0
65 -248 -215 0
65 -248 -233 0
65 -248 -269 0
65 -266 -161 0
65 -266 -179 0
65 -266 -197 0
65 -266 -215 0
65 -266 -233 0
65 -266 -251 0
66 -158 -180 0
66 -158 -198 0
66 -158 -216 0
66 -158 -234 0
66 -158 -252 0
66 -158 -270 0
66 -176 -162 0
66 -176 -198 0
66 -176 -216 0
66 -176 -234 0
66 -176 -252 0
66 -176 -270 0
66 -194 -162 0
66 -194 -180 0
66 -194 -216 0
66 -194 -234 0
66 -194 -252 0
66 -194 -270 0
66 -212 -162 0
66 -212 -180 0
66 -212 -198 0
66 -212 -234 0
66 -212 -252 0
66 -212 -270 0
66 -230 -162 0
66 -230 -180 0
66 -230 -198 0
66 -230 -216 0
66 -230 -252 0
66 -230 -270 0
66 -248 -162 0
66 -248 -180 0
66 -248 -198 0
66 -248 -216 0
66 -248 -234 0
66 -248 -270 0
66 -266 -162 0
66 -266 -180 0
66 -266 -198 0
66 -266 -216 0
66 -266 -234 0
66 -266 -252 0
67 -158 -181 0
67 -158 -199 0
67 -158 -217 0
67 -158 -235 0
67 -158 -253 0
67 -158 -271 0
67 -176 -163 0
67 -176 -199 0
67 -176 -217 0
67 -176 -235 0
67 -176 -253 0
67 -176 -271 0
67 -194 -163 0
67 -194 -181 0
67 -194 -217 0
67 -194 -235 0
67 -194 -253 0
67 -194 -271 0
67 -212 -163 0
67 -212 -181 0
67 -212 -199 0
67 -212 -235 0
67 -212 -253 0
67 -212 -271 0
67 -230 -163 0
67 -230 -181 0
67 -230 -199 0
67 -230 -217 0
67 -230 -253 0
67 -230 -271 0
67 -248 -163 0
67 -248 -181 0
67 -248 -199 0
67 -248 -217 0
67 -248 -235 0
67 -248 -271 0
67 -266 -163 0
67 -266 -181 0
67 -266 -199 0
67 -266 -217 0
67 -266 -235 0
67 -266 -253 0
68 -158 -182 0
68 -158 -200 0
68 -158 -218 0
68 -158 -236 0
68 -158 -254 0
68 -158 -272 0
68 -176 -164 0
68 -176 -200 0
68 -176 -218 0
68 -176 -236 0
68 -176 -254 0
68 -176 -272 0
68 -194 -164 0
68 -194 -182 0
68 -194 -218 0
68 -194 -236 0
68 -194 -254 0
68 -194 -272 0
68 -212 -164 0
68 -212 -182 0
68 -212 -200 0
68 -212 -236 0
68 -212 -254 0
68 -212 -272 0
68 -230 -164 0
68 -230 -182 0
68 -230 -200 0
68 -230 -218 0
68 -230 -254 0
68 -230 -272 0
68 -248 -164 0
68 -248 -182 0
68 -248 -200 0
68 -248 -218 0
68 -248 -236 0
68 -248 -272 0
68 -266 -164 0
68 -266 -182 0
68 -266 -200 0
68 -266 -218 0
68 -266 -236 0
68 -266 -254 0
69 -158 -183 0
69 -158 -201 0
69 -158 -219 0
69 -158 -237 0
69 -158 -255 0
69 -158 -273 0
69 -176 -165 0
69 -176 -201 0
69 -176 -219 0
69 -176 -237 0
69 -176 -255 0
69 -176 -273 0
69 -194 -165 0
69 -194 -183 0
69 -194 -219 0
69 -194 -237 0
69 -194 -255 0
69 -194 -273 0
69 -212 -165 0
69 -212 -183 0
69 -212 -201 0
69 -212 -237 0
69 -212 -255 0
69 -212 -273 0
69 -230 -165 0
69 -230 -183 0
69 -230 -201 0
69 -230 -219 0
69 -230 -255 0
69 -230 -273 0
69 -248 -165 0
69 -248 -183 0
69 -248 -201 0
69 -248 -219 0
69 -248 -237 0
69 -248 -273 0
69 -266 -165 0
69 -266 -183 0
69 -266 -201 0
69 -266 -219 0
69 -266 -237 0
69 -266 -255 0
70 -158 -184 0
70 -158 -202 0
70 -158 -220 0
70 -158 -238 0
70 -158 -256 0
70 -158 -274 0
70 -176 -166 0
70 -176 -202 0
70 -176 -220 0
70 -176 -238 0
70 -176 -256 0
70 -176 -274 0
70 -194 -166 0
70 -194 -184 0
70 -194 -220 0
70 -194 -238 0
70 -194 -256 0
70 -194 -274 0
70 -212 -166 0
70 -212 -184 0
70 -212 -202 0
70 -212 -238 0
70 -212 -256 0
70 -212 -274 0
70 -230 -166 0
70 -230 -184 0
70 -230 -202 0
70 -230 -220 0
70 -230 -256 0
70 -230 -274 0
70 -248 -166 0
70 -248 -184 0
70 -248 -202 0
70 -248 -220 0
70 -248 -238 0
70 -248 -274 0
70 -266 -166 0
70 -266 -184 0
70 -266 -202 0
70 -266 -220 0
70 -266 -238 0
70 -266 -256 0
71 -158 -185 0
71 -158 -203 0
71 -158 -221 0
71 -158 -239 0
71 -158 -257 0
71 -158 -275 0
71 -176 -167 0
71 -176 -203 0
71 -176 -221 0
71 -176 -239 0
71 -176 -257 0
71 -176 -275 0
71 -194 -167 0
71 -194 -185 0
71 -194 -221 0
71 -194 -239 0
71 -194 -257 0
71 -194 -275 0
71 -212 -167 0
71 -212 -185 0
71 -212 -203 0
71 -212 -239 0
71 -212 -257 0
71 -212 -275 0
71 -230 -167 0
71 -230 -185 0
71 -230 -203 0
71 -230 -221 0
71 -230 -257 0
71 -230 -275 0
71 -248 -167 0
71 -248 -185 0
71 -248 -203 0
71 -248 -221 0
71 -248 -239 0
71 -248 -275 0
71 -266 -167 0
71 -266 -185 0
71 -266 -203 0
71 -266 -221 0
71 -266 -239 0
71 -266 -257 0
72 -158 -186 0
72 -158 -204 0
72 -158 -222 0
72 -158 -240 0
72 -158 -258 0
72 -158 -276 0
72 -176 -168 0
72 -176 -204 0
72 -176 -222 0
72 -176 -240 0
72 -176 -258 0
72 -176 -276 0
72 -194 -168 0
72 -194 -186 0
72 -194 -222 0
72 -194 -240 0
72 -194 -258 0
72 -194 -276 0
72 -212 -168 0
72 -212 -186 0
72 -212 -204 0
72 -212 -240 0
72 -212 -258 0
72 -212 -276 0
72 -230 -168 0
72 -230 -186 0
72 -230 -204 0
72 -230 -222 0
72 -230 -258 0
72 -230 -276 0
72 -248 -168 0
72 -248 -186 0
72 -248 -204 0
72 -248 -222 0
72 -248 -240 0
72 -248 -276 0
72 -266 -168 0
72 -266 -186 0
72 -266 -204 0
72 -266 -222 0
72 -266 -240 0
72 -266 -258 0
73 -158 -187 0
73 -158 -205 0
73 -158 -223 0
73 -158 -241 0
73 -158 -259 0
73 -158 -277 0
73 -176 -169 0
73 -176 -205 0
73 -176 -223 0
73 -176 -241 0
73 -176 -259 0
73 -176 -277 0
73 -194 -169 0
73 -194 -187 0
73 -194 -223 0
73 -194 -241 0
73 -194 -259 0
73 -194 -277 0
73 -212 -169 0
73 -212 -187 0
73 -212 -205 0
73 -212 -241 0
73 -212 -259 0
73 -212 -277 0
73 -230 -169 0
73 -230 -187 0
73 -230 -205 0
73 -230 -223 0
73 -230 -259 0
73 -230 -277 0
73 -248 -169 0
73 -248 -187 0
73 -248 -205 0
73 -248 -223 0
73 -248 -241 0
73 -248 -277 0
73 -266 -169 0
73 -266 -187 0
73 -266 -205 0
73 -266 -223 0
73 -266 -241 0
73 -266 -259 0
74 -158 -188 0
74 -158 -206 0
74 -158 -224 0
74 -158 -242 0
74 -158 -260 0
74 -158 -278 0
74 -176 -170 0
74 -176 -206 0
74 -176 -224 0
74 -176 -242 0
74 -176 -260 0
74 -176 -278 0
74 -194 -170 0
74 -194 -188 0
74 -194 -224 0
74 -194 -242 0
74 -194 -260 0
74 -194 -278 0
74 -212 -170 0
74 -212 -188 0
74 -212 -206 0
74 -212 -242 0
74 -212 -260 0
74 -212 -278 0
74 -230 -170 0
74 -230 -188 0
74 -230 -206 0
74 -230 -224 0
74 -230 -260 0
74 -230 -278 0
74 -248 -170 0
74 -248 -188 0
74 -248 -206 0
74 -248 -224 0
74 -248 -242 0
74 -248 -278 0
74 -266 -170 0
74 -266 -188 0
74 -266 -206 0
74 -266 -224 0
74 -266 -242 0
74 -266 -260 0
75 -158 -189 0
75 -158 -207 0
75 -158 -225 0
75 -158 -243 0
75 -158 -261 0
75 -158 -279 0
75 -176 -171 0
75 -176 -207 0
75 -176 -225 0
75 -176 -243 0
75 -176 -261 0
75 -176 -279 0
75 -194 -171 0
75 -194 -189 0
75 -194 -225 0
75 -194 -243 0
75 -194 -261 0
75 -194 -279 0
75 -212 -171 0
75 -212 -189 0
75 -212 -207 0
75 -212 -243 0
75 -212 -261 0
75 -212 -279 0
75 -230 -171 0
75 -230 -189 0
75 -230 -207 0
75 -230 -225 0
75 -230 -261 0
75 -230 -279 0
75 -248 -171 0
75 -248 -189 0
75 -248 -207 0
75 -248 -225 0
75 -248 -243 0
75 -248 -279 0
75 -266 -171 0
75 -266 -189 0
75 -266 -207 0
75 -266 -225 0
75 -266 -243 0
75 -266 -261 0
76 -159 -178 0
76 -159 -196 0
76 -159 -214 0
76 -159 -232 0
76 -159 -250 0
76 -159 -268 0
76 -177 -160 0
76 -177 -196 0
76 -177 -214 0
76 -177 -232 0
76 -177 -250 0
76 -177 -268 0
76 -195 -160 0
76 -195 -178 0
76 -195 -214 0
76 -195 -232 0
76 -195 -250 0
76 -195 -268 0
76 -213 -160 0
76 -213 -178 0
76 -213 -196 0
76 -213 -232 0
76 -213 -250 0
76 -213 -268 0
76 -231 -160 0
76 -231 -178 0
76 -231 -196 0
76 -231 -214 0
76 -231 -250 0
76 -231 -268 0
76 -249 -160 0
76 -249 -178 0
76 -249 -196 0
76 -249 -214 0
76 -249 -232 0
76 -249 -268 0
76 -267 -160 0
76 -267 -178 0
76 -267 -196 0
76 -267 -214 0
76 -267 -232 0
76 -267 -250 0
77 -159 -179 0
77 -159 -197 0
77 -159 -215 0
77 -159 -233 0
77 -159 -251 0
77 -159 -269 0
77 -177 -161 0
77 -177 -197 0
77 -177 -215 0
77 -177 -233 0
77 -177 -251 0
77 -177 -269 0
77 -195 -161 0
77 -195 -179 0
77 -195 -215 0
77 -195 -233 0
77 -195 -251 0
77 -195 -269 0
77 -213 -161 0
77 -213 -179 0
77 -213 -197 0
77 -213 -233 0
77 -213 -251 0
77 -213 -269 0
77 -231 -161 0
77 -231 -179 0
77 -231 -197 0
77 -231 -215 0
77 -231 -251 0
77 -231 -269 0
77 -249 -161 0
77 -249 -179 0
77 -249 -197 0
77 -249 -215 0
77 -249 -233 0
77 -249 -269 0
77 -267 -161 0
77 -267 -179 0
77 -267 -197 0
77 -267 -215 0
77 -267 -233 0
77 -267 -251 0
78 -159 -180 0
78 -159 -198 0
78 -159 -216 0
78 -159 -234 0
78 -159 -252 0
78 -159 -270 0
78 -177 -162 0
78 -177 -198 0
78 -177 -216 0
78 -177 -234 0
78 -177 -252 0
78 -177 -270 0
78 -195 -162 0
78 -195 -180 0
78 -195 -216 0
78 -195 -234 0
78 -195 -252 0
78 -195 -270 0
78 -213 -162 0
78 -213 -180 0
78 -213 -198 0
78 -213 -234 0
78 -213 -252 0
78 -213 -270 0
78 -231 -162 0
78 -231 -180 0
78 -231 -198 0
78 -231 -216 0
78 -231 -252 0
78 -231 -270 0
78 -249 -162 0
78 -249 -180 0
78 -249 -198 0
78 -249 -216 0
78 -249 -234 0
78 -249 -270 0
78 -267 -162 0
78 -267 -180 0
78 -267 -198 0
78 -267 -216 0
78 -267 -234 0
78 -267 -252 0
79 -159 -181 0
79 -159 -199 0
79 -159 -217 0
79 -159 -235 0
79 -159 -253 0
79 -159 -271 0
79 -177 -163 0
79 -177 -199 0
79 -177 -217 0
79 -177 -235 0
79 -177 -253 0
79 -177 -271 0
79 -195 -163 0
79 -195 -181 0
79 -195 -217 0
79 -195 -235 0
79 -195 -253 0
79 -195 -271 0
79 -213 -163 0
79 -213 -181 0
79 -213 -199 0
79 -213 -235 0
79 -213 -253 0
79 -213 -271 0
79 -231 -163 0
79 -231 -181 0
79 -231 -199 0
79 -231 -217 0
79 -231 -253 0
79 -231 -271 0
79 -249 -163 0
79 -249 -181 0
79 -249 -199 0
79 -249 -217 0
79 -249 -235 0
79 -249 -271 0
79 -267 -163 0
79 -267 -181 0
79 -267 -199 0
79 -267 -217 0
79 -267 -235 0
79 -267 -253 0
80 -159 -182 0
80 -159 -200 0
80 -159 -218 0
80 -159 -236 0
80 -159 -254 0
80 -159 -272 0
80 -177 -164 0
80 -177 -200 0
80 -177 -218 0
80 -177 -236 0
80 -177 -254 0
80 -177 -272 0
80 -195 -164 0
80 -195 -182 0
80 -195 -218 0
80 -195 -236 0
80 -195 -254 0
80 -195 -272 0
80 -213 -164 0
80 -213 -182 0
80 -213 -200 0
80 -213 -236 0
80 -213 -254 0
80 -213 -272 0
80 -231 -164 0
80 -231 -182 0
80 -231 -200 0
80 -231 -218 0
80 -231 -254 0
80 -231 -272 0
80 -249 -164 0
80 -249 -182 0
80 -249 -200 0
80 -249 -218 0
80 -249 -236 0
80 -249 -272 0
80 -267 -164 0
80 -267 -182 0
80 -267 -200 0
80 -267 -218 0
80 -267 -236 0
80 -267 -254 0
81 -159 -183 0
81 -159 -201 0
81 -159 -219 0
81 -159 -237 0
81 -159 -255 0
81 -159 -273 0
81 -177 -165 0
81 -177 -201 0
81 -177 -219 0
81 -177 -237 0
81 -177 -255 0
81 -177 -273 0
81 -195 -165 0
81 -195 -183 0
81 -195 -219 0
81 -195 -237 0
81 -195 -255 0
81 -195 -273 0
81 -213 -165 0
81 -213 -183 0
81 -213 -201 0
81 -213 -237 0
81 -213 -255 0
81 -213 -273 0
81 -231 -165 0
81 -231 -183 0
81 -231 -201 0
81 -231 -219 0
81 -231 -255 0
81 -231 -273 0
81 -249 -165 0
81 -249 -183 0
81 -249 -201 0
81 -249 -219 0
81 -249 -237 0
81 -249 -273 0
81 -267 -165 0
81 -267 -183 0
81 -267 -201 0
81 -267 -219 0
81 -267 -237 0
81 -267 -255 0
82 -159 -184 0
82 -159 -202 0
82 -159 -220 0
82 -159 -238 0
82 -159 -256 0
82 -159 -274 0
82 -177 -166 0
82 -177 -202 0
82 -177 -220 0
82 -177 -238 0
82 -177 -256 0
82 -177 -274 0
82 -195 -166 0
82 -195 -184 0
82 -195 -220 0
82 -195 -238 0
82 -195 -256 0
82 -195 -274 0
82 -213 -166 0
82 -213 -184 0
82 -213 -202 0
82 -213 -238 0
82 -213 -256 0
82 -213 -274 0
82 -231 -166 0
82 -231 -184 0
82 -231 -202 0
82 -231 -220 0
82 -231 -256 0
82 -231 -274 0
82 -249 -166 0
82 -249 -184 0
82 -249 -202 0
82 -249 -220 0
82 -249 -238 0
82 -249 -274 0
82 -267 -166 0
82 -267 -184 0
82 -267 -202 0
82 -267 -220 0
82 -267 -238 0
82 -267 -256 0
83 -159 -185 0
83 -159 -203 0
83 -159 -221 0
83 -159 -239 0
83 -159 -257 0
83 -159 -275 0
83 -177 -167 0
83 -177 -203 0
83 -177 -221 0
83 -177 -239 0
83 -177 -257 0
83 -177 -275 0
83 -195 -167 0
83 -195 -185 0
83 -195 -221 0
83 -195 -239 0
83 -195 -257 0
83 -195 -275 0
83 -213 -167 0
83 -213 -185 0
83 -213 -203 0
83 -213 -239 0
83 -213 -257 0
83 -213 -275 0
83 -231 -167 0
83 -231 -185 0
83 -231 -203 0
83 -231 -221 0
83 -231 -257 0
83 -231 -275 0
83 -249 -167 0
83 -249 -185 0
83 -249 -203 0
83 -249 -221 0
83 -249 -239 0
83 -249 -275 0
83 -267 -167 0
83 -267 -185 0
83 -267 -203 0
83 -267 -221 0
83 -267 -239 0
83 -267 -257 0
84 -159 -186 0
84 -159 -204 0
84 -159 -222 0
84 -159 -240 0
84 -159 -258 0
84 -159 -276 0
84 -177 -168 0
84 -177 -204 0
84 -177 -222 0
84 -177 -240 0
84 -177 -258 0
84 -177 -276 0
84 -195 -168 0
84 -195 -186 0
84 -195 -222 0
84 -195 -240 0
84 -195 -258 0
84 -195 -276 0
84 -213 -168 0
84 -213 -186 0
84 -213 -204 0
84 -213 -240 0
84 -213 -258 0
84 -213 -276 0
84 -231 -168 0
84 -231 -186 0
84 -231 -204 0
84 -231 -222 0
84 -231 -258 0
84 -231 -276 0
84 -249 -168 0
84 -249 -186 0
84 -249 -204 0
84 -249 -222 0
84 -249 -240 0
84 -249 -276 0
84 -267 -168 0
84 -267 -186 0
84 -267 -204 0
84 -267 -222 0
84 -267 -240 0
84 -267 -258 0
85 -159 -187 0
85 -159 -205 0
85 -159 -223 0
85 -159 -241 0
85 -159 -259 0
85 -159 -277 0
85 -177 -169 0
85 -177 -205 0
85 -177 -223 0
85 -177 -241 0
85 -177 -259 0
85 -177 -277 0
85 -195 -169 0
85 -195 -187 0
85 -195 -223 0
85 -195 -241 0
85 -195 -259 0
85 -195 -277 0
85 -213 -169 0
85 -213 -187 0
85 -213 -205 0
85 -213 -241 0
85 -213 -259 0
85 -213 -277 0
85 -231 -169 0
85 -231 -187 0
85 -231 -205 0
85 -231 -223 0
85 -231 -259 0
85 -231 -277 0
85 -249 -169 0
85 -249 -187 0
85 -249 -205 0
85 -249 -223 0
85 -249 -241 0
85 -249 -277 0
85 -267 -169 0
85 -267 -187 0
85 -267 -205 0
85 -267 -223 0
85 -267 -241 0
85 -267 -259 0
86 -159 -188 0
86 -159 -206 0
86 -159 -224 0
86 -159 -242 0
86 -159 -260 0
86 -159 -278 0
86 -177 -170 0
86 -177 -206 0
86 -177 -224 0
86 -177 -242 0
86 -177 -260 0
86 -177 -278 0
86 -195 -170 0
86 -195 -188 0
86 -195 -224 0
86 -195 -242 0
86 -195 -260 0
86 -195 -278 0
86 -213 -170 0
86 -213 -188 0
86 -213 -206 0
86 -213 -242 0
86 -213 -260 0
86 -213 -278 0
86 -231 -170 0
86 -231 -188 0
86 -231 -206 0
86 -231 -224 0
86 -231 -260 0
86 -231 -278 0
86 -249 -170 0
86 -249 -188 0
86 -249 -206 0
86 -249 -224 0
86 -249 -242 0
86 -249 -278 0
86 -267 -170 0
86 -267 -188 0
86 -267 -206 0
86 -267 -224 0
86 -267 -242 0
86 -267 -260 0
87 -159 -189 0
87 -159 -207 0
87 -159 -225 0
87 -159 -243 0
87 -159 -261 0
87 -159 -279 0
87 -177 -171 0
87 -177 -207 0
87 -177 -225 0
87 -177 -243 0
87 -177 -261 0
87 -177 -279 0
87 -195 -171 0
87 -195 -189 0
87 -195 -225 0
87 -195 -243 0
87 -195 -261 0
87 -195 -279 0
87 -213 -171 0
87 -213 -189 0
87 -213 -207 0
87 -213 -243 0
87 -213 -261 0
87 -213 -279 0
87 -231 -171 0
87 -231 -189 0
87 -231 -207 0
87 -231 -225 0
87 -231 -261 0
87 -231 -279 0
87 -249 -171 0
87 -249 -189 0
87 -249 -207 0
87 -249 -225 0
87 -249 -243 0
87 -249 -279 0
87 -267 -171 0
87 -267 -189 0
87 -267 -207 0
87 -267 -225 0
87 -267 -243 0
87 -267 -261 0
88 -160 -179 0
88 -160 -197 0
88 -160 -215 0
88 -160 -233 0
88 -160 -251 0
88 -160 -269 0
88 -178 -161 0
88 -178 -197 0
88 -178 -215 0
88 -178 -233 0
88 -178 -251 0
88 -178 -269 0
88 -196 -161 0
88 -196 -179 0
88 -196 -215 0
88 -196 -233 0
88 -196 -251 0
88 -196 -269 0
88 -214 -161 0
88 -214 -179 0
88 -214 -197 0
88 -214 -233 0
88 -214 -251 0
88 -214 -269 0
88 -232 -161 0
88 -232 -179 0
88 -232 -197 0
88 -232 -215 0
88 -232 -251 0
88 -232 -269 0
88 -250 -161 0
88 -250 -179 0
88 -250 -197 0
88 -250 -215 0
88 -250 -233 0
88 -250 -269 0
88 -268 -161 0
88 -268 -179 0
88 -268 -197 0
88 -268 -215 0
88 -268 -233 0
88 -268 -251 0
89 -160 -180 0
89 -160 -198 0
89 -160 -216 0
89 -160 -234 0
89 -160 -252 0
89 -160 -270 0
89 -178 -162 0
89 -178 -198 0
89 -178 -216 0
89 -178 -234 0
89 -178 -252 0
89 -178 -270 0
89 -196 -162 0
89 -196 -180 0
89 -196 -216 0
89 -196 -234 0
89 -196 -252 0
89 -196 -270 0
89 -214 -162 0
89 -214 -180 0
89 -214 -198 0
89 -214 -234 0
89 -214 -252 0
89 -214 -270 0
89 -232 -162 0
89 -232 -180 0
89 -232 -198 0
89 -232 -216 0
89 -232 -252 0
89 -232 -270 0
89 -250 -162 0
89 -250 -180 0
89 -250 -198 0
89 -250 -216 0
89 -250 -234 0
89 -250 -270 0
89 -268 -162 0
89 -268 -180 0
89 -268 -198 0
89 -268 -216 0
89 -268 -234 0
89 -268 -252 0
90 -160 -181 0
90 -160 -199 0
90 -160 -217 0
90 -160 -235 0
90 -160 -253 0
90 -160 -271 0
90 -178 -163 0
90 -178 -199 0
90 -178 -217 0
90 -178 -235 0
90 -178 -253 0
90 -178 -271 0
90 -196 -163 0
90 -196 -181 0
90 -196 -217 0
90 -196 -235 0
90 -196 -253 0
90 -196 -271 0
90 -214 -163 0
90 -214 -181 0
90 -214 -199 0
90 -214 -235 0
90 -214 -253 0
90 -214 -271 0
90 -232 -163 0
90 -232 -181 0
90 -232 -199 0
90 -232 -217 0
90 -232 -253 0
90 -232 -271 0
90 -250 -163 0
90 -250 -181 0
90 -250 -199 0
90 -250 -217 0
90 -250 -235 0
90 -250 -271 0
90 -268 -163 0
90 -268 -181 0
90 -268 -199 0
90 -268 -217 0
90 -268 -235 0
90 -268 -253 0
91 -160 -182 0
91 -160 -200 0
91 -160 -218 0
91 -160 -236 0
91 -160 -254 0
91 -160 -272 0
91 -178 -164 0
91 -178 -200 0
91 -178 -218 0
91 -178 -236 0
91 -178 -254 0
91 -178 -272 0
91 -196 -164 0
91 -196 -182 0
91 -196 -218 0
91 -196 -236 0
91 -196 -254 0
91 -196 -272 0
91 -214 -164 0
91 -214 -182 0
91 -214 -200 0
91 -214 -236 0
91 -214 -254 0
91 -214 -272 0
91 -232 -164 0
91 -232 -182 0
91 -232 -200 0
91 -232 -218 0
91 -232 -254 0
91 -232 -272 0
91 -250 -164 0
91 -250 -182 0
91 -250 -200 0
91 -250 -218 0
91 -250 -236 0
91 -250 -272 0
91 -268 -164 0
91 -268 -182 0
91 -268 -200 0
91 -268 -218 0
91 -268 -236 0
91 -268 -254 0
92 -160 -183 0
92 -160 -201 0
92 -160 -219 0
92 -160 -237 0
92 -160 -255 0
92 -160 -273 0
92 -178 -165 0
92 -178 -201 0
92 -178 -219 0
92 -178 -237 0
92 -178 -255 0
92 -178 -273 0
92 -196 -165 0
92 -196 -183 0
92 -196 -219 0
92 -196 -237 0
92 -196 -255 0
92 -196 -273 0
92 -214 -165 0
92 -214 -183 0
92 -214 -201 0
92 -214 -237 0
92 -214 -255 0
92 -214 -273 0
92 -232 -165 0
92 -232 -183 0
92 -232 -201 0
92 -232 -219 0
92 -232 -255 0
92 -232 -273 0
92 -250 -165 0
92 -250 -183 0
92 -250 -201 0
92 -250 -219 0
92 -250 -237 0
92 -250 -273 0
92 -268 -165 0
92 -268 -183 0
92 -268 -201 0
92 -268 -219 0
92 -268 -237 0
92 -268 -255 0
93 -160 -184 0
93 -160 -202 0
93 -160 -220 0
93 -160 -238 0
93 -160 -256 0
93 -160 -274 0
93 -178 -166 0
93 -178 -202 0
93 -178 -220 0
93 -178 -238 0
93 -178 -256 0
93 -178 -274 0
93 -196 -166 0
93 -196 -184 0
93 -196 -220 0
93 -196 -238 0
93 -196 -256 0
93 -196 -274 0
93 -214 -166 0
93 -214 -184 0
93 -214 -202 0
93 -214 -238 0
93 -214 -256 0
93 -214 -274 0
93 -232 -166 0
93 -232 -184 0
93 -232 -202 0
93 -232 -220 0
93 -232 -256 0
93 -232 -274 0
93 -250 -166 0
93 -250 -184 0
93 -250 -202 0
93 -250 -220 0
93 -250 -238 0
93 -250 -274 0
93 -268 -166 0
93 -268 -184 0
93 -268 -202 0
93 -268 -220 0
93 -268 -238 0
93 -268 -256 0
94 -160 -185 0
94 -160 -203 0
94 -160 -221 0
94 -160 -239 0
94 -160 -257 0
94 -160 -275 0
94 -178 -167 0
94 -178 -203 0
94 -178 -221 0
94 -178 -239 0
94 -178 -257 0
94 -178 -275 0
94 -196 -167 0
94 -196 -185 0
94 -196 -221 0
94 -196 -239 0
94 -196 -257 0
94 -196 -275 0
94 -214 -167 0
94 -214 -185 0
94 -214 -203 0
94 -214 -239 0
94 -214 -257 0
94 -214 -275 0
94 -232 -167 0
94 -232 -185 0
94 -232 -203 0
94 -232 -221 0
94 -232 -257 0
94 -232 -275 0
94 -250 -167 0
94 -250 -185 0
94 -250 -203 0
94 -250 -221 0
94 -250 -239 0
94 -250 -275 0
94 -268 -167 0
94 -268 -185 0
94 -268 -203 0
94 -268 -221 0
94 -268 -239 0
94 -268 -257 0
95 -160 -186 0
95 -160 -204 0
95 -160 -222 0
95 -160 -240 0
95 -160 -258 0
95 -160 -276 0
95 -178 -168 0
95 -178 -204 0
95 -178 -222 0
95 -178 -240 0
95 -178 -258 0
95 -178 -276 0
95 -196 -168 0
95 -196 -186 0
95 -196 -222 0
95 -196 -240 0
95 -196 -258 0
95 -196 -276 0
95 -214 -168 0
95 -214 -186 0
95 -214 -204 0
95 -214 -240 0
95 -214 -258 0
95 -214 -276 0
95 -232 -168 0
95 -232 -186 0
95 -232 -204 0
95 -232 -222 0
95 -232 -258 0
95 -232 -276 0
95 -250 -168 0
95 -250 -186 0
95 -250 -204 0
95 -250 -222 0
95 -250 -240 0
95 -250 -276 0
95 -268 -168 0
95 -268 -186 0
95 -268 -204 0
95 -268 -222 0
95 -268 -240 0
95 -268 -258 0
96 -160 -187 0
96 -160 -205 0
96 -160 -223 0
96 -160 -241 0
96 -160 -259 0
96 -160 -277 0
96 -178 -169 0
96 -178 -205 0
96 -178 -223 0
96 -178 -241 0
96 -178 -259 0
96 -178 -277 0
96 -196 -169 0
96 -196 -187 0
96 -196 -223 0
96 -196 -241 0
96 -196 -259 0
96 -196 -277 0
96 -214 -169 0
96 -214 -187 0
96 -214 -205 0
96 -214 -241 0
96 -214 -259 0
96 -214 -277 0
96 -232 -169 0
96 -232 -187 0
96 -232 -205 0
96 -232 -223 0
96 -232 -259 0
96 -232 -277 0
96 -250 -169 0
96 -250 -187 0
96 -250 -205 0
96 -250 -223 0
96 -250 -241 0
96 -250 -277 0
96 -268 -169 0
96 -268 -187 0
96 -268 -205 0
96 -268 -223 0
96 -268 -241 0
96 -268 -259 0
97 -160 -188 0
97 -160 -206 0
97 -160 -224 0
97 -160 -242 0
97 -160 -260 0
97 -160 -278 0
97 -178 -170 0
97 -178 -206 0
97 -178 -224 0
97 -178 -242 0
97 -178 -260 0
97 -178 -278 0
97 -196 -170 0
97 -196 -188 0
97 -196 -224 0
97 -196 -242 0
97 -196 -260 0
97 -196 -278 0
97 -214 -170 0
97 -214 -188 0
97 -214 -206 0
97 -214 -242 0
97 -214 -260 0
97 -214 -278 0
97 -232 -170 0
97 -232 -188 0
97 -232 -206 0
97 -232 -224 0
97 -232 -260 0
97 -232 -278 0
97 -250 -170 0
97 -250 -188 0
97 -250 -206 0
97 -250 -224 0
97 -250 -242 0
97 -250 -278 0
97 -268 -170 0
97 -268 -188 0
97 -268 -206 0
97 -268 -224 0
97 -268 -242 0
97 -268 -260 0
98 -160 -189 0
98 -160 -207 0
98 -160 -225 0
98 -160 -243 0
98 -160 -261 0
98 -160 -279 0
98 -178 -171 0
98 -178 -207 0
98 -178 -225 0
98 -178 -243 0
98 -178 -261 0
98 -178 -279 0
98 -196 -171 0
98 -196 -189 0
98 -196 -225 0
98 -196 -243 0
98 -196 -261 0
98 -196 -279 0
98 -214 -171 0
98 -214 -189 0
98 -214 -207 0
98 -214 -243 0
98 -214 -261 0
98 -214 -279 0
98 -232 -171 0
98 -232 -189 0
98 -232 -207 0
98 -232 -225 0
98 -232 -261 0
98 -232 -279 0
98 -250 -171 0
98 -250 -189 0
98 -250 -207 0
98 -250 -225 0
98 -250 -243 0
98 -250 -279 0
98 -268 -171 0
98 -268 -189 0
98 -268 -207 0
98 -268 -225 0
98 -268 -243 0
98 -268 -261 0
99 -161 -180 0
99 -161 -198 0
99 -161 -216 0
99 -161 -234 0
99 -161 -252 0
99 -161 -270 0
99 -179 -162 0
99 -179 -198 0
99 -179 -216 0
99 -179 -234 0
99 -179 -252 0
99 -179 -270 0
99 -197 -162 0
99 -197 -180 0
99 -197 -216 0
99 -197 -234 0
99 -197 -252 0
99 -197 -270 0
99 -215 -162 0
99 -215 -180 0
99 -215 -198 0
99 -215 -234 0
99 -215 -252 0
99 -215 -270 0
99 -233 -162 0
99 -233 -180 0
99 -233 -198 0
99 -233 -216 0
99 -233 -252 0
99 -233 -270 0
99 -251 -162 0
99 -251 -180 0
99 -251 -198 0
99 -251 -216 0
99 -251 -234 0
99 -251 -270 0
99 -269 -162 0
99 -269 -180 0
99 -269 -198 0
99 -269 -216 0
99 -269 -234 0
99 -269 -252 0
100 -161 -181 0
100 -161 -199 0
100 -161 -217 0
100 -161 -235 0
100 -161 -253 0
100 -161 -271 0
100 -179 -163 0
100 -179 -199 0
100 -179 -217 0
100 -179 -235 0
100 -179 -253 0
100 -179 -271 0
100 -197 -163 0
100 -197 -181 0
100 -197 -217 0
100 -197 -235 0
100 -197 -253 0
100 -197 -271 0
100 -215 -163 0
100 -215 -181 0
100 -215 -199 0
100 -215 -235 0
100 -215 -253 0
100 -215 -271 0
100 -233 -163 0
100 -233 -181 0
100 -233 -199 0
100 -233 -217 0
100 -233 -253 0
100 -233 -271 0
100 -251 -163 0
100 -251 -181 0
100 -251 -199 0
100 -251 -217 0
100 -251 -235 0
100 -251 -271 0
100 -269 -163 0
100 -269 -181 0
100 -269 -199 0
100 -269 -217 0
100 -269 -235 0
100 -269 -253 0
101 -161 -182 0
101 -161 -200 0
101 -161 -218 0
101 -161 -236 0
101 -161 -254 0
101 -161 -272 0
101 -179 -164 0
101 -179 -200 0
101 -179 -218 0
101 -179 -236 0
101 -179 -254 0
101 -179 -272 0
101 -197 -164 0
101 -197 -182 0
101 -197 -218 0
101 -197 -236 0
101 -197 -254 0
101 -197 -272 0
101 -215 -164 0
101 -215 -182 0
101 -215 -200 0
101 -215 -236 0
101 -215 -254 0
101 -215 -272 0
101 -233 -164 0
101 -233 -182 0
101 -233 -200 0
101 -233 -218 0
101 -233 -254 0
101 -233 -272 0
101 -251 -164 0
101 -251 -182 0
101 -251 -200 0
101 -251 -218 0
101 -251 -236 0
101 -251 -272 0
101 -269 -164 0
101 -269 -182 0
101 -269 -200 0
101 -269 -218 0
101 -269 -236 0
101 -269 -254 0
102 -161 -183 0
102 -161 -201 0
102 -161 -219 0
102 -161 -237 0
102 -161 -255 0
102 -161 -273 0
102 -179 -165 0
102 -179 -201 0
102 -179 -219 0
102 -179 -237 0
102 -179 -255 0
102 -179 -273 0
102 -197 -165 0
102 -197 -183 0
102 -197 -219 0
102 -197 -237 0
102 -197 -255 0
102 -197 -273 0
102 -215 -165 0
102 -215 -183 0
102 -215 -201 0
102 -215 -237 0
102 -215 -255 0
102 -215 -273 0
102 -233 -165 0
102 -233 -183 0
102 -233 -201 0
102 -233 -219 0
102 -233 -255 0
102 -233 -273 0
102 -251 -165 0
102 -251 -183 0
102 -251 -201 0
102 -251 -219 0
102 -251 -237 0
102 -251 -273 0
102 -269 -165 0
102 -269 -183 0
102 -269 -201 0
102 -269 -219 0
102 -269 -237 0
102 -269 -255 0
103 -161 -184 0
103 -161 -202 0
103 -161 -220 0
103 -161 -238 0
103 -161 -256 0
103 -161 -274 0
103 -179 -166 0
103 -179 -202 0
103 -179 -220 0
103 -179 -238 0
103 -179 -256 0
103 -179 -274 0
103 -197 -166 0
103 -197 -184 0
103 -197 -220 0
103 -197 -238 0
103 -197 -256 0
103 -197 -274 0
103 -215 -166 0
103 -215 -184 0
103 -215 -202 0
103 -215 -238 0
103 -215 -256 0
103 -215 -274 0
103 -233 -166 0
103 -233 -184 0
103 -233 -202 0
103 -233 -220 0
103 -233 -256 0
103 -233 -274 0
103 -251 -166 0
103 -251 -184 0
103 -251 -202 0
103 -251 -220 0
103 -251 -238 0
103 -251 -274 0
103 -269 -166 0
103 -269 -184 0
103 -269 -202 0
103 -269 -220 0
103 -269 -238 0
103 -269 -256 0
104 -161 -185 0
104 -161 -203 0
104 -161 -221 0
104 -161 -239 0
104 -161 -257 0
104 -161 -275 0
104 -179 -167 0
104 -179 -203 0
104 -179 -221 0
104 -179 -239 0
104 -179 -257 0
104 -179 -275 0
104 -197 -167 0
104 -197 -185 0
104 -197 -221 0
104 -197 -239 0
104 -197 -257 0
104 -197 -275 0
104 -215 -167 0
104 -215 -185 0
104 -215 -203 0
104 -215 -239 0
104 -215 -257 0
104 -215 -275 0
104 -233 -167 0
104 -233 -185 0
104 -233 -203 0
104 -233 -221 0
104 -233 -257 0
104 -233 -275 0
104 -251 -167 0
104 -251 -185 0
104 -251 -203 0
104 -251 -221 0
104 -251 -239 0
104 -251 -275 0
104 -269 -167 0
104 -269 -185 0
104 -269 -203 0
104 -269 -221 0
104 -269 -239 0
104 -269 -257 0
105 -161 -186 0
105 -161 -204 0
105 -161 -222 0
105 -161 -240 0
105 -161 -258 0
105 -161 -276 0
105 -179 -168 0
105 -179 -204 0
105 -179 -222 0
105 -179 -240 0
105 -179 -258 0
105 -179 -276 0
105 -197 -168 0
105 -197 -186 0
105 -197 -222 0
105 -197 -240 0
105 -197 -258 0
105 -197 -276 0
105 -215 -168 0
105 -215 -186 0
105 -215 -204 0
105 -215 -240 0
105 -215 -258 0
105 -215 -276 0
105 -233 -168 0
105 -233 -186 0
105 -233 -204 0
105 -233 -222 0
105 -233 -258 0
105 -233 -276 0
105 -251 -168 0
105 -251 -186 0
105 -251 -204 0
105 -251 -222 0
105 -251 -240 0
105 -251 -276 0
105 -269 -168 0
105 -269 -186 0
105 -269 -204 0
105 -269 -222 0
105 -269 -240 0
105 -269 -258 0
106 -161 -187 0
106 -161 -205 0
106 -161 -223 0
106 -161 -241 0
106 -161 -259 0
106 -161 -277 0
106 -179 -169 0
106 -179 -205 0
106 -179 -223 0
106 -179 -241 0
106 -179 -259 0
106 -179 -277 0
106 -197 -169 0
106 -197 -187 0
106 -197 -223 0
106 -197 -241 0
106 -197 -259 0
106 -197 -277 0
106 -215 -169 0
106 -215 -187 0
106 -215 -205 0
106 -215 -241 0
106 -215 -259 0
106 -215 -277 0
106 -233 -169 0
106 -233 -187 0
106 -233 -205 0
106 -233 -223 0
106 -233 -259 0
106 -233 -277 0
106 -251 -169 0
106 -251 -187 0
106 -251 -205 0
106 -251 -223 0
106 -251 -241 0
106 -251 -277 0
106 -269 -169 0
106 -269 -187 0
106 -269 -205 0
106 -269 -223 0
106 -269 -241 0
106 -269 -259 0
107 -161 -188 0
107 -161 -206 0
107 -161 -224 0
107 -161 -242 0
107 -161 -260 0
107 -161 -278 0
107 -179 -170 0
107 -179 -206 0
107 -179 -224 0
107 -179 -242 0
107 -179 -260 0
107 -179 -278 0
107 -197 -170 0
107 -197 -188 0
107 -197 -224 0
107 -197 -242 0
107 -197 -260 0
107 -197 -278 0
107 -215 -170 0
107 -215 -188 0
107 -215 -206 0
107 -215 -242 0
107 -215 -260 0
107 -215 -278 0
107 -233 -170 0
107 -233 -188 0
107 -233 -206 0
107 -233 -224 0
107 -233 -260 0
107 -233 -278 0
107 -251 -170 0
107 -251 -188 0
107 -251 -206 0
107 -251 -224 0
107 -251 -242 0
107 -251 -278 0
107 -269 -170 0
107 -269 -188 0
107 -269 -206 0
107 -269 -224 0
107 -269 -242 0
107 -269 -260 0
108 -161 -189 0
108 -161 -207 0
108 -161 -225 0
108 -161 -243 0
108 -161 -261 0
108 -161 -279 0
108 -179 -171 0
108 -179 -207 0
108 -179 -225 0
108 -179 -243 0
108 -179 -261 0
108 -179 -279 0
108 -197 -171 0
108 -197 -189 0
108 -197 -225 0
108 -197 -243 0
108 -197 -261 0
108 -197 -279 0
108 -215 -171 0
108 -215 -189 0
108 -215 -207 0
108 -215 -243 0
108 -215 -261 0
108 -215 -279 0
108 -233 -171 0
108 -233 -189 0
108 -233 -207 0
108 -233 -225 0
108 -233 -261 0
108 -233 -279 0
108 -251 -171 0
108 -251 -189 0
108 -251 -207 0
108 -251 -225 0
108 -251 -243 0
108 -251 -279 0
108 -269 -171 0
108 -269 -189 0
108 -269 -207 0
108 -269 -225 0
108 -269 -243 0
108 -269 -261 0
109 -162 -181 0
109 -162 -199 0
109 -162 -217 0
109 -162 -235 0
109 -162 -253 0
109 -162 -271 0
109 -180 -163 0
109 -180 -199 0
109 -180 -217 0
109 -180 -235 0
109 -180 -253 0
109 -180 -271 0
109 -198 -163 0
109 -198 -181 0
109 -198 -217 0
109 -198 -235 0
109 -198 -253 0
109 -198 -271 0
109 -216 -163 0
109 -216 -181 0
109 -216 -199 0
109 -216 -235 0
109 -216 -253 0
109 -216 -271 0
109 -234 -163 0
109 -234 -181 0
109 -234 -199 0
109 -234 -217 0
109 -234 -253 0
109 -234 -271 0
109 -252 -163 0
109 -252 -181 0
109 -252 -199 0
109 -252 -217 0
109 -252 -235 0
109 -252 -271 0
109 -270 -163 0
109 -270 -181 0
109 -270 -199 0
109 -270 -217 0
109 -270 -235 0
109 -270 -253 0
110 -162 -182 0
110 -162 -200 0
110 -162 -218 0
110 -162 -236 0
110 -162 -254 0
110 -162 -272 0
110 -180 -164 0
110 -180 -200 0
110 -180 -218 0
110 -180 -236 0
110 -180 -254 0
110 -180 -272 0
110 -198 -164 0
110 -198 -182 0
110 -198 -218 0
110 -198 -236 0
110 -198 -254 0
110 -198 -272 0
110 -216 -164 0
110 -216 -182 0
110 -216 -200 0
110 -216 -236 0
110 -216 -254 0
110 -216 -272 0
110 -234 -164 0
110 -234 -182 0
110 -234 -200 0
110 -234 -218 0
110 -234 -254 0
110 -234 -272 0
110 -252 -164 0
110 -252 -182 0
110 -252 -200 0
110 -252 -218 0
110 -252 -236 0
110 -252 -272 0
110 -270 -164 0
110 -270 -182 0
110 -270 -200 0
110 -270 -218 0
110 -270 -236 0
110 -270 -254 0
111 -162 -183 0
111 -162 -201 0
111 -162 -219 0
111 -162 -237 0
111 -162 -255 0
111 -162 -273 0
111 -180 -165 0
111 -180 -201 0
111 -180 -219 0
111 -180 -237 0
111 -180 -255 0
111 -180 -273 0
111 -198 -165 0
111 -198 -183 0
111 -198 -219 0
111 -198 -237 0
111 -198 -255 0
111 -198 -273 0
111 -216 -165 0
111 -216 -183 0
111 -216 -201 0
111 -216 -237 0
111 -216 -255 0
111 -216 -273 0
111 -234 -165 0
111 -234 -183 0
111 -234 -201 0
111 -234 -219 0
111 -234 -255 0
111 -234 -273 0
111 -252 -165 0
111 -252 -183 0
111 -252 -201 0
111 -252 -219 0
111 -252 -237 0
111 -252 -273 0
111 -270 -165 0
111 -270 -183 0
111 -270 -201 0
111 -270 -219 0
111 -270 -237 0
111 -270 -255 0
112 -162 -184 0
112 -162 -202 0
112 -162 -220 0
112 -162 -238 0
112 -162 -256 0
112 -162 -274 0
112 -180 -166 0
112 -180 -202 0
112 -180 -220 0
112 -180 -238 0
112 -180 -256 0
112 -180 -274 0
112 -198 -166 0
112 -198 -184 0
112 -198 -220 0
112 -198 -238 0
112 -198 -256 0
112 -198 -274 0
112 -216 -166 0
112 -216 -184 0
112 -216 -202 0
112 -216 -238 0
112 -216 -256 0
112 -216 -274 0
112 -234 -166 0
112 -234 -184 0
112 -234 -202 0
112 -234 -220 0
112 -234 -256 0
112 -234 -274 0
112 -252 -166 0
112 -252 -184 0
112 -252 -202 0
112 -252 -220 0
112 -252 -238 0
112 -252 -274 0
112 -270 -166 0
112 -270 -184 0
112 -270 -202 0
112 -270 -220 0
112 -270 -238 0
112 -270 -256 0
113 -162 -185 0
113 -162 -203 0
113 -162 -221 0
113 -162 -239 0
113 -162 -257 0
113 -162 -275 0
113 -180 -167 0
113 -180 -203 0
113 -180 -221 0
113 -180 -239 0
113 -180 -257 0
113 -180 -275 0
113 -198 -167 0
113 -198 -185 0
113 -198 -221 0
113 -198 -239 0
113 -198 -257 0
113 -198 -275 0
113 -216 -167 0
113 -216 -185 0
113 -216 -203 0
113 -216 -239 0
113 -216 -257 0
113 -216 -275 0
113 -234 -167 0
113 -234 -185 0
113 -234 -203 0
113 -234 -221 0
113 -234 -257 0
113 -234 -275 0
113 -252 -167 0
113 -252 -185 0
113 -252 -203 0
113 -252 -221 0
113 -252 -239 0
113 -252 -275 0
113 -270 -167 0
113 -270 -185 0
113 -270 -203 0
113 -270 -221 0
113 -270 -239 0
113 -270 -257 0
114 -162 -186 0
114 -162 -204 0
114 -162 -222 0
114 -162 -240 0
114 -162 -258 0
114 -162 -276 0
114 -180 -168 0
114 -180 -204 0
114 -180 -222 0
114 -180 -240 0
114 -180 -258 0
114 -180 -276 0
114 -198 -168 0
114 -198 -186 0
114 -198 -222 0
114 -198 -240 0
114 -198 -258 0
114 -198 -276 0
114 -216 -168 0
114 -216 -186 0
114 -216 -204 0
114 -216 -240 0
114 -216 -258 0
114 -216 -276 0
114 -234 -168 0
114 -234 -186 0
114 -234 -204 0
114 -234 -222 0
114 -234 -258 0
114 -234 -276 0
114 -252 -168 0
114 -252 -186 0
114 -252 -204 0
114 -252 -222 0
114 -252 -240 0
114 -252 -276 0
114 -270 -168 0
114 -270 -186 0
114 -270 -204 0
114 -270 -222 0
114 -270 -240 0
114 -270 -258 0
115 -162 -187 0
115 -162 -205 0
115 -162 -223 0
115 -162 -241 0
115 -162 -259 0
115 -162 -277 0
115 -180 -169 0
115 -180 -205 0
115 -180 -223 0
115 -180 -241 0
115 -180 -259 0
115 -180 -277 0
115 -198 -169 0
115 -198 -187 0
115 -198 -223 0
115 -198 -241 0
115 -198 -259 0
115 -198 -277 0
115 -216 -169 0
115 -216 -187 0
115 -216 -205 0
115 -216 -241 0
115 -216 -259 0
115 -216 -277 0
115 -234 -169 0
115 -234 -187 0
115 -234 -205 0
115 -234 -223 0
115 -234 -259 0
115 -234 -277 0
115 -252 -169 0
115 -252 -187 0
115 -252 -205 0
115 -252 -223 0
115 -252 -241 0
115 -252 -277 0
115 -270 -169 0
115 -270 -187 0
115 -270 -205 0
115 -270 -223 0
115 -270 -241 0
115 -270 -259 0
116 -162 -188 0
116 -162 -206 0
116 -162 -224 0
116 -162 -242 0
116 -162 -260 0
116 -162 -278 0
116 -180 -170 0
116 -180 -206 0
116 -180 -224 0
116 -180 -242 0
116 -180 -260 0
116 -180 -278 0
116 -198 -170 0
116 -198 -188 0
116 -198 -224 0
116 -198 -242 0
116 -198 -260 0
116 -198 -278 0
116 -216 -170 0
116 -216 -188 0
116 -216 -206 0
116 -216 -242 0
116 -216 -260 0
116 -216 -278 0
116 -234 -170 0
116 -234 -188 0
116 -234 -206 0
116 -234 -224 0
116 -234 -260 0
116 -234 -278 0
116 -252 -170 0
116 -252 -188 0
116 -252 -206 0
116 -252 -224 0
116 -252 -242 0
116 -252 -278 0
116 -270 -170 0
116 -270 -188 0
116 -270 -206 0
116 -270 -224 0
116 -270 -242 0
116 -270 -260 0
117 -162 -189 0
117 -162 -207 0
117 -162 -225 0
117 -162 -243 0
117 -162 -261 0
117 -162 -279 0
117 -180 -171 0
117 -180 -207 0
117 -180 -225 0
117 -180 -243 0
117 -180 -261 0
117 -180 -279 0
117 -198 -171 0
117 -198 -189 0
117 -198 -225 0
117 -198 -243 0
117 -198 -261 0
117 -198 -279 0
117 -216 -171 0
117 -216 -189 0
117 -216 -207 0
117 -216 -243 0
117 -216 -261 0
117 -216 -279 0
117 -234 -171 0
117 -234 -189 0
117 -234 -207 0
117 -234 -225 0
117 -234 -261 0
117 -234 -279 0
117 -252 -171 0
117 -252 -189 0
117 -252 -207 0
117 -252 -225 0
117 -252 -243 0
117 -252 -279 0
117 -270 -171 0
117 -270 -189 0
117 -270 -207 0
117 -270 -225 0
117 -270 -243 0
117 -270 -261 0
118 -163 -182 0
118 -163 -200 0
118 -163 -218 0
118 -163 -236 0
118 -163 -254 0
118 -163 -272 0
118 -181 -164 0
118 -181 -200 0
118 -181 -218 0
118 -181 -236 0
118 -181 -254 0
118 -181 -272 0
118 -199 -164 0
118 -199 -182 0
118 -199 -218 0
118 -199 -236 0
118 -199 -254 0
118 -199 -272 0
118 -217 -164 0
118 -217 -182 0
118 -217 -200 0
118 -217 -236 0
118 -217 -254 0
118 -217 -272 0
118 -235 -164 0
118 -235 -182 0
118 -235 -200 0
118 -235 -218 0
118 -235 -254 0
118 -235 -272 0
118 -253 -164 0
118 -253 -182 0
118 -253 -200 0
118 -253 -218 0
118 -253 -236 0
118 -253 -272 0
118 -271 -164 0
118 -271 -182 0
118 -271 -200 0
118 -271 -218 0
118 -271 -236 0
118 -271 -254 0
119 -163 -183 0
119 -163 -201 0
119 -163 -219 0
119 -163 -237 0
119 -163 -255 0
119 -163 -273 0
119 -181 -165 0
119 -181 -201 0
119 -181 -219 0
119 -181 -237 0
119 -181 -255 0
119 -181 -273 0
119 -199 -165 0
119 -199 -183 0
119 -199 -219 0
119 -199 -237 0
119 -199 -255 0
119 -199 -273 0
119 -217 -165 0
119 -217 -183 0
119 -217 -201 0
119 -217 -237 0
119 -217 -255 0
119 -217 -273 0
119 -235 -165 0
119 -235 -183 0
119 -235 -201 0
119 -235 -219 0
119 -235 -255 0
119 -235 -273 0
119 -253 -165 0
119 -253 -183 0
119 -253 -201 0
119 -253 -219 0
119 -253 -237 0
119 -253 -273 0
119 -271 -165 0
119 -271 -183 0
119 -271 -201 0
119 -271 -219 0
119 -271 -237 0
119 -271 -255 0
120 -163 -184 0
120 -163 -202 0
120 -163 -220 0
120 -163 -238 0
120 -163 -256 0
120 -163 -274 0
120 -181 -166 0
120 -181 -202 0
120 -181 -220 0
120 -181 -238 0
120 -181 -256 0
120 -181 -274 0
120 -199 -166 0
120 -199 -184 0
120 -199 -220 0
120 -199 -238 0
120 -199 -256 0
120 -199 -274 0
120 -217 -166 0
120 -217 -184 0
120 -217 -202 0
120 -217 -238 0
120 -217 -256 0
120 -217 -274 0
120 -235 -166 0
120 -235 -184 0
120 -235 -202 0
120 -235 -220 0
120 -235 -256 0
120 -235 -274 0
120 -253 -166 0
120 -253 -184 0
120 -253 -202 0
120 -253 -220 0
120 -253 -238 0
120 -253 -274 0
120 -271 -166 0
120 -271 -184 0
120 -271 -202 0
120 -271 -220 0
120 -271 -238 0
120 -271 -256 0
121 -163 -185 0
121 -163 -203 0
121 -163 -221 0
121 -163 -239 0
121 -163 -257 0
121 -163 -275 0
121 -181 -167 0
121 -181 -203 0
121 -181 -221 0
121 -181 -239 0
121 -181 -257 0
121 -181 -275 0
121 -199 -167 0
121 -199 -185 0
121 -199 -221 0
121 -199 -239 0
121 -199 -257 0
121 -199 -275 0
121 -217 -167 0
121 -217 -185 0
121 -217 -203 0
121 -217 -239 0
121 -217 -257 0
121 -217 -275 0
121 -235 -167 0
121 -235 -185 0
121 -235 -203 0
121 -235 -221 0
121 -235 -257 0
121 -235 -275 0
121 -253 -167 0
121 -253 -185 0
121 -253 -203 0
121 -253 -221 0
121 -253 -239 0
121 -253 -275 0
121 -271 -167 0
121 -271 -185 0
121 -271 -203 0
121 -271 -221 0
121 -271 -239 0
121 -271 -257 0
122 -163 -186 0
122 -163 -204 0
122 -163 -222 0
122 -163 -240 0
122 -163 -258 0
122 -163 -276 0
122 -181 -168 0
122 -181 -204 0
122 -181 -222 0
122 -181 -240 0
122 -181 -258 0
122 -181 -276 0
122 -199 -168 0
122 -199 -186 0
122 -199 -222 0
122 -199 -240 0
122 -199 -258 0
122 -199 -276 0
122 -217 -168 0
122 -217 -186 0
122 -217 -204 0
122 -217 -240 0
122 -217 -258 0
122 -217 -276 0
122 -235 -168 0
122 -235 -186 0
122 -235 -204 0
122 -235 -222 0
122 -235 -258 0
122 -235 -276 0
122 -253 -168 0
122 -253 -186 0
122 -253 -204 0
122 -253 -222 0
122 -253 -240 0
122 -253 -276 0
122 -271 -168 0
122 -271 -186 0
122 -271 -204 0
122 -271 -222 0
122 -271 -240 0
122 -271 -258 0
123 -163 -187 0
123 -163 -205 0
123 -163 -223 0
123 -163 -241 0
123 -163 -259 0
123 -163 -277 0
123 -181 -169 0
123 -181 -205 0
123 -181 -223 0
123 -181 -241 0
123 -181 -259 0
123 -181 -277 0
123 -199 -169 0
123 -199 -187 0
123 -199 -223 0
123 -199 -241 0
123 -199 -259 0
123 -199 -277 0
123 -217 -169 0
123 -217 -187 0
123 -217 -205 0
123 -217 -241 0
123 -217 -259 0
123 -217 -277 0
123 -235 -169 0
123 -235 -187 0
123 -235 -205 0
123 -235 -223 0
123 -235 -259 0
123 -235 -277 0
123 -253 -169 0
123 -253 -187 0
123 -253 -205 0
123 -253 -223 0
123 -253 -241 0
123 -253 -277 0
123 -271 -169 0
123 -271 -187 0
123 -271 -205 0
123 -271 -223 0
123 -271 -241 0
123 -271 -259 0
124 -163 -188 0
124 -163 -206 0
124 -163 -224 0
124 -163 -242 0
124 -163 -260 0
124 -163 -278 0
124 -181 -170 0
124 -181 -206 0
124 -181 -224 0
124 -181 -242 0
124 -181 -260 0
124 -181 -278 0
124 -199 -170 0
124 -199 -188 0
124 -199 -224 0
124 -199 -242 0
124 -199 -260 0
124 -199 -278 0
124 -217 -170 0
124 -217 -188 0
124 -217 -206 0
124 -217 -242 0
124 -217 -260 0
124 -217 -278 0
124 -235 -170 0
124 -235 -188 0
124 -235 -206 0
124 -235 -224 0
124 -235 -260 0
124 -235 -278 0
124 -253 -170 0
124 -253 -188 0
124 -253 -206 0
124 -253 -224 0
124 -253 -242 0
124 -253 -278 0
124 -271 -170 0
124 -271 -188 0
124 -271 -206 0
124 -271 -224 0
124 -271 -242 0
124 -271 -260 0
125 -163 -189 0
125 -163 -207 0
125 -163 -225 0
125 -163 -243 0
125 -163 -261 0
125 -163 -279 0
125 -181 -171 0
125 -181 -207 0
125 -181 -225 0
125 -181 -243 0
125 -181 -261 0
125 -181 -279 0
125 -199 -171 0
125 -199 -189 0
125 -199 -225 0
125 -199 -243 0
125 -199 -261 0
125 -199 -279 0
125 -217 -171 0
125 -217 -189 0
125 -217 -207 0
125 -217 -243 0
125 -217 -261 0
125 -217 -279 0
125 -235 -171 0
125 -235 -189 0
125 -235 -207 0
125 -235 -225 0
125 -235 -261 0
125 -235 -279 0
125 -253 -171 0
125 -253 -189 0
125 -253 -207 0
125 -253 -225 0
125 -253 -243 0
125 -253 -279 0
125 -271 -171 0
125 -271 -189 0
125 -271 -207 0
125 -271 -225 0
125 -271 -243 0
125 -271 -261 0
126 -164 -183 0
126 -164 -201 0
126 -164 -219 0
126 -164 -237 0
126 -164 -255 0
126 -164 -273 0
126 -182 -165 0
126 -182 -201 0
126 -182 -219 0
126 -182 -237 0
126 -182 -255 0
126 -182 -273 0
126 -200 -165 0
126 -200 -183 0
126 -200 -219 0
126 -200 -237 0
126 -200 -255 0
126 -200 -273 0
126 -218 -165 0
126 -218 -183 0
126 -218 -201 0
126 -218 -237 0
126 -218 -255 0
126 -218 -273 0
126 -236 -165 0
126 -236 -183 0
126 -236 -201 0
126 -236 -219 0
126 -236 -255 0
126 -236 -273 0
126 -254 -165 0
126 -254 -183 0
126 -254 -201 0
126 -254 -219 0
126 -254 -237 0
126 -254 -273 0
126 -272 -165 0
126 -272 -183 0
126 -272 -201 0
126 -272 -219 0
126 -272 -237 0
126 -272 -255 0
127 -164 -184 0
127 -164 -202 0
127 -164 -220 0
127 -164 -238 0
127 -164 -256 0
127 -164 -274 0
127 -182 -166 0
127 -182 -202 0
127 -182 -220 0
127 -182 -238 0
127 -182 -256 0
127 -182 -274 0
127 -200 -166 0
127 -200 -184 0
127 -200 -220 0
127 -200 -238 0
127 -200 -256 0
127 -200 -274 0
127 -218 -166 0
127 -218 -184 0
127 -218 -202 0
127 -218 -238 0
127 -218 -256 0
127 -218 -274 0
127 -236 -166 0
127 -236 -184 0
127 -236 -202 0
127 -236 -220 0
127 -236 -256 0
127 -236 -274 0
127 -254 -166 0
127 -254 -184 0
127 -254 -202 0
127 -254 -220 0
127 -254 -238 0
127 -254 -274 0
127 -272 -166 0
127 -272 -184 0
127 -272 -202 0
127 -272 -220 0
127 -272 -238 0
127 -272 -256 0
128 -164 -185 0
128 -164 -203 0
128 -164 -221 0
128 -164 -239 0
128 -164 -257 0
128 -164 -275 0
128 -182 -167 0
128 -182 -203 0
128 -182 -221 0
128 -182 -239 0
128 -182 -257 0
128 -182 -275 0
128 -200 -167 0
128 -200 -185 0
128 -200 -221 0
128 -200 -239 0
128 -200 -257 0
128 -200 -275 0
128 -218 -167 0
128 -218 -185 0
128 -218 -203 0
128 -218 -239 0
128 -218 -257 0
128 -218 -275 0
128 -236 -167 0
128 -236 -185 0
128 -236 -203 0
128 -236 -221 0
128 -236 -257 0
128 -236 -275 0
128 -254 -167 0
128 -254 -185 0
128 -254 -203 0
128 -254 -221 0
128 -254 -239 0
128 -254 -275 0
128 -272 -167 0
128 -272 -185 0
128 -272 -203 0
128 -272 -221 0
128 -272 -239 0
128 -272 -257 0
129 -164 -186 0
129 -164 -204 0
129 -164 -222 0
129 -164 -240 0
129 -164 -258 0
129 -164 -276 0
129 -182 -168 0
129 -182 -204 0
129 -182 -222 0
129 -182 -240 0
129 -182 -258 0
129 -182 -276 0
129 -200 -168 0
129 -200 -186 0
129 -200 -222 0
129 -200 -240 0
129 -200 -258 0
129 -200 -276 0
129 -218 -168 0
129 -218 -186 0
129 -218 -204 0
129 -218 -240 0
129 -218 -258 0
129 -218 -276 0
129 -236 -168 0
129 -236 -186 0
129 -236 -204 0
129 -236 -222 0
129 -236 -258 0
129 -236 -276 0
129 -254 -168 0
129 -254 -186 0
129 -254 -204 0
129 -254 -222 0
129 -254 -240 0
129 -254 -276 0
129 -272 -168 0
129 -272 -186 0
129 -272 -204 0
129 -272 -222 0
129 -272 -240 0
129 -272 -258 0
130 -164 -187 0
130 -164 -205 0
130 -164 -223 0
130 -164 -241 0
130 -164 -259 0
130 -164 -277 0
130 -182 -169 0
130 -182 -205 0
130 -182 -223 0
130 -182 -241 0
130 -182 -259 0
130 -182 -277 0
130 -200 -169 0
130 -200 -187 0
130 -200 -223 0
130 -200 -241 0
130 -200 -259 0
130 -200 -277 0
130 -218 -169 0
130 -218 -187 0
130 -218 -205 0
130 -218 -241 0
130 -218 -259 0
130 -218 -277 0
130 -236 -169 0
130 -236 -187 0
130 -236 -205 0
130 -236 -223 0
130 -236 -259 0
130 -236 -277 0
130 -254 -169 0
130 -254 -187 0
130 -254 -205 0
130 -254 -223 0
130 -254 -241 0
130 -254 -277 0
130 -272 -169 0
130 -272 -187 0
130 -272 -205 0
130 -272 -223 0
130 -272 -241 0
130 -272 -259 0
131 -164 -188 0
131 -164 -206 0
131 -164 -224 0
131 -164 -242 0
131 -164 -260 0
131 -164 -278 0
131 -182 -170 0
131 -182 -206 0
131 -182 -224 0
131 -182 -242 0
131 -182 -260 0
131 -182 -278 0
131 -200 -170 0
131 -200 -188 0
131 -200 -224 0
131 -200 -242 0
131 -200 -260 0
131 -200 -278 0
131 -218 -170 0
131 -218 -188 0
131 -218 -206 0
131 -218 -242 0
131 -218 -260 0
131 -218 -278 0
131 -236 -170 0
131 -236 -188 0
131 -236 -206 0
131 -236 -224 0
131 -236 -260 0
131 -236 -278 0
131 -254 -170 0
131 -254 -188 0
131 -254 -206 0
131 -254 -224 0
131 -254 -242 0
131 -254 -278 0
131 -272 -170 0
131 -272 -188 0
131 -272 -206 0
131 -272 -224 0
131 -272 -242 0
131 -272 -260 0
132 -164 -189 0
132 -164 -207 0
132 -164 -225 0
132 -164 -243 0
132 -164 -261 0
132 -164 -279 0
132 -182 -171 0
132 -182 -207 0
132 -182 -225 0
132 -182 -243 0
132 -182 -261 0
132 -182 -279 0
132 -200 -171 0
132 -200 -189 0
132 -200 -225 0
132 -200 -243 0
132 -200 -261 0
132 -200 -279 0
132 -218 -171 0
132 -218 -189 0
132 -218 -207 0
132 -218 -243 0
132 -218 -261 0
132 -218 -279 0
132 -236 -171 0
132 -236 -189 0
132 -236 -207 0
132 -236 -225 0
132 -236 -261 0
132 -236 -279 0
132 -254 -171 0
132 -254 -189 0
132 -254 -207 0
132 -254 -225 0
132 -254 -243 0
132 -254 -279 0
132 -272 -171 0
132 -272 -189 0
132 -272 -207 0
132 -272 -225 0
132 -272 -243 0
132 -272 -261 0
133 -165 -184 0
133 -165 -202 0
133 -165 -220 0
133 -165 -238 0
133 -165 -256 0
133 -165 -274 0
133 -183 -166 0
133 -183 -202 0
133 -183 -220 0
133 -183 -238 0
133 -183 -256 0
133 -183 -274 0
133 -201 -166 0
133 -201 -184 0
133 -201 -220 0
133 -201 -238 0
133 -201 -256 0
133 -201 -274 0
133 -219 -166 0
133 -219 -184 0
133 -219 -202 0
133 -219 -238 0
133 -219 -256 0
133 -219 -274 0
133 -237 -166 0
133 -237 -184 0
133 -237 -202 0
133 -237 -220 0
133 -237 -256 0
133 -237 -274 0
133 -255 -166 0
133 -255 -184 0
133 -255 -202 0
133 -255 -220 0
133 -255 -238 0
133 -255 -274 0
133 -273 -166 0
133 -273 -184 0
133 -273 -202 0
133 -273 -220 0
133 -273 -238 0
133 -273 -256 0
134 -165 -185 0
134 -165 -203 0
134 -165 -221 0
134 -165 -239 0
134 -165 -257 0
134 -165 -275 0
134 -183 -167 0
134 -183 -203 0
134 -183 -221 0
134 -183 -239 0
134 -183 -257 0
134 -183 -275 0
134 -201 -167 0
134 -201 -185 0
134 -201 -221 0
134 -201 -239 0
134 -201 -257 0
134 -201 -275 0
134 -219 -167 0
134 -219 -185 0
134 -219 -203 0
134 -219 -239 0
134 -219 -257 0
134 -219 -275 0
134 -237 -167 0
134 -237 -185 0
134 -237 -203 0
134 -237 -221 0
134 -237 -257 0
134 -237 -275 0
134 -255 -167 0
134 -255 -185 0
134 -255 -203 0
134 -255 -221 0
134 -255 -239 0
134 -255 -275 0
134 -273 -167 0
134 -273 -185 0
134 -273 -203 0
134 -273 -221 0
134 -273 -239 0
134 -273 -257 0
135 -165 -186 0
135 -165 -204 0
135 -165 -222 0
135 -165 -240 0
135 -165 -258 0
135 -165 -276 0
135 -183 -168 0
135 -183 -204 0
135 -183 -222 0
135 -183 -240 0
135 -183 -258 0
135 -183 -276 0
135 -201 -168 0
135 -201 -186 0
135 -201 -222 0
135 -201 -240 0
135 -201 -258 0
135 -201 -276 0
135 -219 -168 0
135 -219 -186 0
135 -219 -204 0
135 -219 -240 0
135 -219 -258 0
135 -219 -276 0
135 -237 -168 0
135 -237 -186 0
135 -237 -204 0
135 -237 -222 0
135 -237 -258 0
135 -237 -276 0
135 -255 -168 0
135 -255 -186 0
135 -255 -204 0
135 -255 -222 0
135 -255 -240 0
135 -255 -276 0
135 -273 -168 0
135 -273 -186 0
135 -273 -204 0
135 -273 -222 0
135 -273 -240 0
135 -273 -258 0
136 -165 -187 0
136 -165 -205 0
136 -165 -223 0
136 -165 -241 0
136 -165 -259 0
136 -165 -277 0
136 -183 -169 0
136 -183 -205 0
136 -183 -223 0
136 -183 -241 0
136 -183 -259 0
136 -183 -277 0
136 -201 -169 0
136 -201 -187 0
136 -201 -223 0
136 -201 -241 0
136 -201 -259 0
136 -201 -277 0
136 -219 -169 0
136 -219 -187 0
136 -219 -205 0
136 -219 -241 0
136 -219 -259 0
136 -219 -277 0
136 -237 -169 0
136 -237 -187 0
136 -237 -205 0
136 -237 -223 0
136 -237 -259 0
136 -237 -277 0
136 -255 -169 0
136 -255 -187 0
136 -255 -205 0
136 -255 -223 0
136 -255 -241 0
136 -255 -277 0
136 -273 -169 0
136 -273 -187 0
136 -273 -205 0
136 -273 -223 0
136 -273 -241 0
136 -273 -259 0
137 -165 -188 0
137 -165 -206 0
137 -165 -224 0
137 -165 -242 0
137 -165 -260 0
137 -165 -278 0
137 -183 -170 0
137 -183 -206 0
137 -183 -224 0
137 -183 -242 0
137 -183 -260 0
137 -183 -278 0
137 -201 -170 0
137 -201 -188 0
137 -201 -224 0
137 -201 -242 0
137 -201 -260 0
137 -201 -278 0
137 -219 -170 0
137 -219 -188 0
137 -219 -206 0
137 -219 -242 0
137 -219 -260 0
137 -219 -278 0
137 -237 -170 0
137 -237 -188 0
137 -237 -206 0
137 -237 -224 0
137 -237 -260 0
137 -237 -278 0
137 -255 -170 0
137 -255 -188 0
137 -255 -206 0
137 -255 -224 0
137 -255 -242 0
137 -255 -278 0
137 -273 -170 0
137 -273 -188 0
137 -273 -206 0
137 -273 -224 0
137 -273 -242 0
137 -273 -260 0
138 -165 -189 0
138 -165 -207 0
138 -165 -225 0
138 -165 -243 0
138 -165 -261 0
138 -165 -279 0
138 -183 -171 0
138 -183 -207 0
138 -183 -225 0
138 -183 -243 0
138 -183 -261 0
138 -183 -279 0
138 -201 -171 0
138 -201 -189 0
138 -201 -225 0
138 -201 -243 0
138 -201 -261 0
138 -201 -279 0
138 -219 -171 0
138 -219 -189 0
138 -219 -207 0
138 -219 -243 0
138 -219 -261 0
138 -219 -279 0
138 -237 -171 0
138 -237 -189 0
138 -237 -207 0
138 -237 -225 0
138 -237 -261 0
138 -237 -279 0
138 -255 -171 0
138 -255 -189 0
138 -255 -207 0
138 -255 -225 0
138 -255 -243 0
138 -255 -279 0
138 -273 -171 0
138 -273 -189 0
138 -273 -207 0
138 -273 -225 0
138 -273 -243 0
138 -273 -261 0
139 -166 -185 0
139 -166 -203 0
139 -166 -221 0
139 -166 -239 0
139 -166 -257 0
139 -166 -275 0
139 -184 -167 0
139 -184 -203 0
139 -184 -221 0
139 -184 -239 0
139 -184 -257 0
139 -184 -275 0
139 -202 -167 0
139 -202 -185 0
139 -202 -221 0
139 -202 -239 0
139 -202 -257 0
139 -202 -275 0
139 -220 -167 0
139 -220 -185 0
139 -220 -203 0
139 -220 -239 0
139 -220 -257 0
139 -220 -275 0
139 -238 -167 0
139 -238 -185 0
139 -238 -203 0
139 -238 -221 0
139 -238 -257 0
139 -238 -275 0
139 -256 -167 0
139 -256 -185 0
139 -256 -203 0
139 -256 -221 0
139 -256 -239 0
139 -256 -275 0
139 -274 -167 0
139 -274 -185 0
139 -274 -203 0
139 -274 -221 0
139 -274 -239 0
139 -274 -257 0
140 -166 -186 0
140 -166 -204 0
140 -166 -222 0
140 -166 -240 0
140 -166 -258 0
140 -166 -276 0
140 -184 -168 0
140 -184 -204 0
140 -184 -222 0
140 -184 -240 0
140 -184 -258 0
140 -184 -276 0
140 -202 -168 0
140 -202 -186 0
140 -202 -222 0
140 -202 -240 0
140 -202 -258 0
140 -202 -276 0
140 -220 -168 0
140 -220 -186 0
140 -220 -204 0
140 -220 -240 0
140 -220 -258 0
140 -220 -276 0
140 -238 -168 0
140 -238 -186 0
140 -238 -204 0
140 -238 -222 0
140 -238 -258 0
140 -238 -276 0
140 -256 -168 0
140 -256 -186 0
140 -256 -204 0
140 -256 -222 0
140 -256 -240 0
140 -256 -276 0
140 -274 -168 0
140 -274 -186 0
140 -274 -204 0
140 -274 -222 0
140 -274 -240 0
140 -274 -258 0
141 -166 -187 0
141 -166 -205 0
141 -166 -223 0
141 -166 -241 0
141 -166 -259 0
141 -166 -277 0
141 -184 -169 0
141 -184 -205 0
141 -184 -223 0
141 -184 -241 0
141 -184 -259 0
141 -184 -277 0
141 -202 -169 0
141 -202 -187 0
141 -202 -223 0
141 -202 -241 0
141 -202 -259 0
141 -202 -277 0
141 -220 -169 0
141 -220 -187 0
141 -220 -205 0
141 -220 -241 0
141 -220 -259 0
141 -220 -277 0
141 -238 -169 0
141 -238 -187 0
141 -238 -205 0
141 -238 -223 0
141 -238 -259 0
141 -238 -277 0
141 -256 -169 0
141 -256 -187 0
141 -256 -205 0
141 -256 -223 0
141 -256 -241 0
141 -256 -277 0
141 -274 -169 0
141 -274 -187 0
141 -274 -205 0
141 -274 -223 0
141 -274 -241 0
141 -274 -259 0
142 -166 -188 0
142 -166 -206 0
142 -166 -224 0
142 -166 -242 0
142 -166 -260 0
142 -166 -278 0
142 -184 -170 0
142 -184 -206 0
142 -184 -224 0
142 -184 -242 0
142 -184 -260 0
142 -184 -278 0
142 -202 -170 0
142 -202 -188 0
142 -202 -224 0
142 -202 -242 0
142 -202 -260 0
142 -202 -278 0
142 -220 -170 0
142 -220 -188 0
142 -220 -206 0
142 -220 -242 0
142 -220 -260 0
142 -220 -278 0
142 -238 -170 0
142 -238 -188 0
142 -238 -206 0
142 -238 -224 0
142 -238 -260 0
142 -238 -278 0
142 -256 -170 0
142 -256 -188 0
142 -256 -206 0
142 -256 -224 0
142 -256 -242 0
142 -256 -278 0
142 -274 -170 0
142 -274 -188 0
142 -274 -206 0
142 -274 -224 0
142 -274 -242 0
142 -274 -260 0
143 -166 -189 0
143 -166 -207 0
143 -166 -225 0
143 -166 -243 0
143 -166 -261 0
143 -166 -279 0
143 -184 -171 0
143 -184 -207 0
143 -184 -225 0
143 -184 -243 0
143 -184 -261 0
143 -184 -279 0
143 -202 -171 0
143 -202 -189 0
143 -202 -225 0
143 -202 -243 0
143 -202 -261 0
143 -202 -279 0
143 -220 -171 0
143 -220 -189 0
143 -220 -207 0
143 -220 -243 0
143 -220 -261 0
143 -220 -279 0
143 -238 -171 0
143 -238 -189 0
143 -238 -207 0
143 -238 -225 0
143 -238 -261 0
143 -238 -279 0
143 -256 -171 0
143 -256 -189 0
143 -256 -207 0
143 -256 -225 0
143 -256 -243 0
143 -256 -279 0
143 -274 -171 0
143 -274 -189 0
143 -274 -207 0
143 -274 -225 0
143 -274 -243 0
143 -274 -261 0
144 -167 -186 0
144 -167 -204 0
144 -167 -222 0
144 -167 -240 0
144 -167 -258 0
144 -167 -276 0
144 -185 -168 0
144 -185 -204 0
144 -185 -222 0
144 -185 -240 0
144 -185 -258 0
144 -185 -276 0
144 -203 -168 0
144 -203 -186 0
144 -203 -222 0
144 -203 -240 0
144 -203 -258 0
144 -203 -276 0
144 -221 -168 0
144 -221 -186 0
144 -221 -204 0
144 -221 -240 0
144 -221 -258 0
144 -221 -276 0
144 -239 -168 0
144 -239 -186 0
144 -239 -204 0
144 -239 -222 0
144 -239 -258 0
144 -239 -276 0
144 -257 -168 0
144 -257 -186 0
144 -257 -204 0
144 -257 -222 0
144 -257 -240 0
144 -257 -276 0
144 -275 -168 0
144 -275 -186 0
144 -275 -204 0
144 -275 -222 0
144 -275 -240 0
144 -275 -258 0
145 -167 -187 0
145 -167 -205 0
145 -167 -223 0
145 -167 -241 0
145 -167 -259 0
145 -167 -277 0
145 -185 -169 0
145 -185 -205 0
145 -185 -223 0
145 -185 -241 0
145 -185 -259 0
145 -185 -277 0
145 -203 -169 0
145 -203 -187 0
145 -203 -223 0
145 -203 -241 0
145 -203 -259 0
145 -203 -277 0
145 -221 -169 0
145 -221 -187 0
145 -221 -205 0
145 -221 -241 0
145 -221 -259 0
145 -221 -277 0
145 -239 -169 0
145 -239 -187 0
145 -239 -205 0
145 -239 -223 0
145 -239 -259 0
145 -239 -277 0
145 -257 -169 0
145 -257 -187 0
145 -257 -205 0
145 -257 -223 0
145 -257 -241 0
145 -257 -277 0
145 -275 -169 0
145 -275 -187 0
145 -275 -205 0
145 -275 -223 0
145 -275 -241 0
145 -275 -259 0
146 -167 -188 0
146 -167 -206 0
146 -167 -224 0
146 -167 -242 0
146 -167 -260 0
146 -167 -278 0
146 -185 -170 0
146 -185 -206 0
146 -185 -224 0
146 -185 -242 0
146 -185 -260 0
146 -185 -278 0
146 -203 -170 0
146 -203 -188 0
146 -203 -224 0
146 -203 -242 0
146 -203 -260 0
146 -203 -278 0
146 -221 -170 0
146 -221 -188 0
146 -221 -206 0
146 -221 -242 0
146 -221 -260 0
146 -221 -278 0
146 -239 -170 0
146 -239 -188 0
146 -239 -206 0
146 -239 -224 0
146 -239 -260 0
146 -239 -278 0
146 -257 -170 0
146 -257 -188 0
146 -257 -206 0
146 -257 -224 0
146 -257 -242 0
146 -257 -278 0
146 -275 -170 0
146 -275 -188 0
146 -275 -206 0
146 -275 -224 0
146 -275 -242 0
146 -275 -260 0
147 -167 -189 0
147 -167 -207 0
147 -167 -225 0
147 -167 -243 0
147 -167 -261 0
147 -167 -279 0
147 -185 -171 0
147 -185 -207 0
147 -185 -225 0
147 -185 -243 0
147 -185 -261 0
147 -185 -279 0
147 -203 -171 0
147 -203 -189 0
147 -203 -225 0
147 -203 -243 0
147 -203 -261 0
147 -203 -279 0
147 -221 -171 0
147 -221 -189 0
147 -221 -207 0
147 -221 -243 0
147 -221 -261 0
147 -221 -279 0
147 -239 -171 0
147 -239 -189 0
147 -239 -207 0
147 -239 -225 0
147 -239 -261 0
147 -239 -279 0
147 -257 -171 0
147 -257 -189 0
147 -257 -207 0
147 -257 -225 0
147 -257 -243 0
147 -257 -279 0
147 -275 -171 0
147 -275 -189 0
147 -275 -207 0
147 -275 -225 0
147 -275 -243 0
147 -275 -261 0
148 -168 -187 0
148 -168 -205 0
148 -168 -223 0
148 -168 -241 0
148 -168 -259 0
148 -168 -277 0
148 -186 -169 0
148 -186 -205 0
148 -186 -223 0
148 -186 -241 0
148 -186 -259 0
148 -186 -277 0
148 -204 -169 0
148 -204 -187 0
148 -204 -223 0
148 -204 -241 0
148 -204 -259 0
148 -204 -277 0
148 -222 -169 0
148 -222 -187 0
148 -222 -205 0
148 -222 -241 0
148 -222 -259 0
148 -222 -277 0
148 -240 -169 0
148 -240 -187 0
148 -240 -205 0
148 -240 -223 0
148 -240 -259 0
148 -240 -277 0
148 -258 -169 0
148 -258 -187 0
148 -258 -205 0
148 -258 -223 0
148 -258 -241 0
148 -258 -277 0
148 -276 -169 0
148 -276 -187 0
148 -276 -205 0
148 -276 -223 0
148 -276 -241 0
148 -276 -259 0
149 -168 -188 0
149 -168 -206 0
149 -168 -224 0
149 -168 -242 0
149 -168 -260 0
149 -168 -278 0
149 -186 -170 0
149 -186 -206 0
149 -186 -224 0
149 -186 -242 0
149 -186 -260 0
149 -186 -278 0
149 -204 -170 0
149 -204 -188 0
149 -204 -224 0
149 -204 -242 0
149 -204 -260 0
149 -204 -278 0
149 -222 -170 0
149 -222 -188 0
149 -222 -206 0
149 -222 -242 0
149 -222 -260 0
149 -222 -278 0
149 -240 -170 0
149 -240 -188 0
149 -240 -206 0
149 -240 -224 0
149 -240 -260 0
149 -240 -278 0
149 -258 -170 0
149 -258 -188 0
149 -258 -206 0
149 -258 -224 0
149 -258 -242 0
149 -258 -278 0
149 -276 -170 0
149 -276 -188 0
149 -276 -206 0
149 -276 -224 0
149 -276 -242 0
149 -276 -260 0
150 -168 -189 0
150 -168 -207 0
150 -168 -225 0
150 -168 -243 0
150 -168 -261 0
150 -168 -279 0
150 -186 -171 0
150 -186 -207 0
150 -186 -225 0
150 -186 -243 0
150 -186 -261 0
150 -186 -279 0
150 -204 -171 0
150 -204 -189 0
150 -204 -225 0
150 -204 -243 0
150 -204 -261 0
150 -204 -279 0
150 -222 -171 0
150 -222 -189 0
150 -222 -207 0
150 -222 -243 0
150 -222 -261 0
150 -222 -279 0
150 -240 -171 0
150 -240 -189 0
150 -240 -207 0
150 -240 -225 0
150 -240 -261 0
150 -240 -279 0
150 -258 -171 0
150 -258 -189 0
150 -258 -207 0
150 -258 -225 0
150 -258 -243 0
150 -258 -279 0
150 -276 -171 0
150 -276 -189 0
150 -276 -207 0
150 -276 -225 0
150 -276 -243 0
150 -276 -261 0
151 -169 -188 0
151 -169 -206 0
151 -169 -224 0
151 -169 -242 0
151 -169 -260 0
151 -169 -278 0
151 -187 -170 0
151 -187 -206 0
151 -187 -224 0
151 -187 -242 0
151 -187 -260 0
151 -187 -278 0
151 -205 -170 0
151 -205 -188 0
151 -205 -224 0
151 -205 -242 0
151 -205 -260 0
151 -205 -278 0
151 -223 -170 0
151 -223 -188 0
151 -223 -206 0
151 -223 -242 0
151 -223 -260 0
151 -223 -278 0
151 -241 -170 0
151 -241 -188 0
151 -241 -206 0
151 -241 -224 0
151 -241 -260 0
151 -241 -278 0
151 -259 -170 0
151 -259 -188 0
151 -259 -206 0
151 -259 -224 0
151 -259 -242 0
151 -259 -278 0
151 -277 -170 0
151 -277 -188 0
151 -277 -206 0
151 -277 -224 0
151 -277 -242 0
151 -277 -260 0
152 -169 -189 0
152 -169 -207 0
152 -169 -225 0
152 -169 -243 0
152 -169 -261 0
152 -169 -279 0
152 -187 -171 0
152 -187 -207 0
152 -187 -225 0
152 -187 -243 0
152 -187 -261 0
152 -187 -279 0
152 -205 -171 0
152 -205 -189 0
152 -205 -225 0
152 -205 -243 0
152 -205 -261 0
152 -205 -279 0
152 -223 -171 0
152 -223 -189 0
152 -223 -207 0
152 -223 -243 0
152 -223 -261 0
152 -223 -279 0
152 -241 -171 0
152 -241 -189 0
152 -241 -207 0
152 -241 -225 0
152 -241 -261 0
152 -241 -279 0
152 -259 -171 0
152 -259 -189 0
152 -259 -207 0
152 -259 -225 0
152 -259 -243 0
152 -259 -279 0
152 -277 -171 0
152 -277 -189 0
152 -277 -207 0
152 -277 -225 0
152 -277 -243 0
152 -277 -261 0
153 -170 -189 0
153 -170 -207 0
153 -170 -225 0
153 -170 -243 0
153 -170 -261 0
153 -170 -279 0
153 -188 -171 0
153 -188 -207 0
153 -188 -225 0
153 -188 -243 0
153 -188 -261 0
153 -188 -279 0
153 -206 -171 0
153 -206 -189 0
153 -206 -225 0
153 -206 -243 0
153 -206 -261 0
153 -206 -279 0
153 -224 -171 0
153 -224 -189 0
153 -224 -207 0
153 -224 -243 0
153 -224 -261 0
153 -224 -279 0
153 -242 -171 0
153 -242 -189 0
153 -242 -207 0
153 -242 -225 0
153 -242 -261 0
153 -242 -279 0
153 -260 -171 0
153 -260 -189 0
153 -260 -207 0
153 -260 -225 0
153 -260 -243 0
153 -260 -279 0
153 -278 -171 0
153 -278 -189 0
153 -278 -207 0
153 -278 -225 0
153 -278 -243 0
153 -278 -261 0
-280 -281 0
-280 -282 0
-280 -283 0
-280 -284 0
-280 -285 0
-281 -282 0
-281 -283 0
-281 -284 0
-281 -285 0
-282 -283 0
-282 -284 0
-282 -285 0
-283 -284 0
-283 -285 0
-284 -285 0
280 281 282 283 284 285 0
-286 -287 0
-286 -288 0
-286 -289 0
-286 -290 0
-286 -291 0
-287 -288 0
-287 -289 0
-287 -290 0
-287 -291 0
-288 -289 0
-288 -290 0
-288 -291 0
-289 -290 0
-289 -291 0
-290 -291 0
286 287 288 289 290 291 0
-292 -293 0
-292 -294 0
-292 -295 0
-292 -296 0
-292 -297 0
-293 -294 0
-293 -295 0
-293 -296 0
-293 -297 0
-294 -295 0
-294 -296 0
-294 -297 0
-295 -296 0
-295 -297 0
-296 -297 0
292 293 294 295 296 297 0
-298 -299 0
-298 -300 0
-298 -301 0
-298 -302 0
-298 -303 0
-299 -300 0
-299 -301 0
-299 -302 0
-299 -303 0
-300 -301 0
-300 -302 0
-300 -303 0
-301 -302 0
-301 -303 0
-302 -303 0
298 299 300 301 302 303 0
-304 -305 0
-304 -306 0
-304 -307 0
-304 -308 0
-304 -309 0
-305 -306 0
-305 -307 0
-305 -308 0
-305 -309 0
-306 -307 0
-306 -308 0
-306 -309 0
-307 -308 0
-307 -309 0
-308 -309 0
304 305 306 307 308 309 0
-310 -311 0
-310 -312 0
-310 -313 0
-310 -314 0
-310 -315 0
-311 -312 0
-311 -313 0
-311 -314 0
-311 -315 0
-312 -313 0
-312 -314 0
-312 -315 0
-313 -314 0
-313 -315 0
-314 -315 0
310 311 312 313 314 315 0
-316 -317 0
-316 -318 0
-316 -319 0
-316 -320 0
-316 -321 0
-317 -318 0
-317 -319 0
-317 -320 0
-317 -321 0
-318 -319 0
-318 -320 0
-318 -321 0
-319 -320 0
-319 -321 0
-320 -321 0
316 317 318 319 320 321 0
-322 -323 0
-322 -324 0
-322 -325 0
-322 -326 0
-322 -327 0
-323 -324 0
-323 -325 0
-323 -326 0
-323 -327 0
-324 -325 0
-324 -326 0
-324 -327 0
-325 -326 0
-325 -327 0
-326 -327 0
322 323 324 325 326 327 0
-328 -329 0
-328 -330 0
-328 -331 0
-328 -332 0
-328 -333 0
-329 -330 0
-329 -331 0
-329 -332 0
-329 -333 0
-330 -331 0
-330 -332 0
-330 -333 0
-331 -332 0
-331 -333 0
-332 -333 0
328 329 330 331 332 333 0
-334 -335 0
-334 -336 0
-334 -337 0
-334 -338 0
-334 -339 0
-335 -336 0
-335 -337 0
-335 -338 0
-335 -339 0
-336 -337 0
-336 -338 0
-336 -339 0
-337 -338 0
-337 -339 0
-338 -339 0
334 335 336 337 338 339 0
-340 -341 0
-340 -342 0
-340 -343 0
-340 -344 0
-340 -345 0
-341 -342 0
-341 -343 0
-341 -344 0
-341 -345 0
-342 -343 0
-342 -344 0
-342 -345 0
-343 -344 0
-343 -345 0
-344 -345 0
340 341 342 343 344 345 0
-346 -347 0
-346 -348 0
-346 -349 0
-346 -350 0
-346 -351 0
-347 -348 0
-347 -349 0
-347 -350 0
-347 -351 0
-348 -349 0
-348 -350 0
-348 -351 0
-349 -350 0
-349 -351 0
-350 -351 0
346 347 348 349 350 351 0
-352 -353 0
-352 -354 0
-352 -355 0
-352 -356 0
-352 -357 0
-353 -354 0
-353 -355 0
-353 -356 0
-353 -357 0
-354 -355 0
-354 -356 0
-354 -357 0
-355 -356 0
-355 -357 0
-356 -357 0
352 353 354 355 356 357 0
-358 -359 0
-358 -360 0
-358 -361 0
-358 -362 0
-358 -363 0
-359 -360 0
-359 -361 0
-359 -362 0
-359 -363 0
-360 -361 0
-360 -362 0
-360 -363 0
-361 -362 0
-361 -363 0
-362 -363 0
358 359 360 361 362 363 0
-364 -365 0
-364 -366 0
-364 -367 0
-364 -368 0
-364 -369 0
-365 -366 0
-365 -367 0
-365 -368 0
-365 -369 0
-366 -367 0
-366 -368 0
-366 -369 0
-367 -368 0
-367 -369 0
-368 -369 0
364 365 366 367 368 369 0
-370 -371 0
-370 -372 0
-370 -373 0
-370 -374 0
-370 -375 0
-371 -372 0
-371 -373 0
-371 -374 0
-371 -375 0
-372 -373 0
-372 -374 0
-372 -375 0
-373 -374 0
-373 -375 0
-374 -375 0
370 371 372 373 374 375 0
-376 -377 0
-376 -378 0
-376 -379 0
-376 -380 0
-376 -381 0
-377 -378 0
-377 -379 0
-377 -380 0
-377 -381 0
-378 -379 0
-378 -380 0
-378 -381 0
-379 -380 0
-379 -381 0
-380 -381 0
376 377 378 379 380 381 0
-382 -383 0
-382 -384 0
-382 -385 0
-382 -386 0
-382 -387 0
-383 -384 0
-383 -385 0
-383 -386 0
-383 -387 0
-384 -385 0
-384 -386 0
-384 -387 0
-385 -386 0
-385 -387 0
-386 -387 0
382 383 384 385 386 387 0
-1 -280 -286 0
-1 -281 -287 0
-1 -282 -288 0
-1 -283 -289 0
-1 -284 -290 0
-1 -285 -291 0
-2 -280 -292 0
-2 -281 -293 0
-2 -282 -294 0
-2 -283 -295 0
-2 -284 -296 0
-2 -285 -297 0
-3 -280 -298 0
-3 -281 -299 0
-3 -282 -300 0
-3 -283 -301 0
-3 -284 -302 0
-3 -285 -303 0
-4 -280 -304 0
-4 -281 -305 0
-4 -282 -306 0
-4 -283 -307 0
-4 -284 -308 0
-4 -285 -309 0
-5 -280 -310 0
-5 -281 -311 0
-5 -282 -312 0
-5 -283 -313 0
-5 -284 -314 0
-5 -285 -315 0
-6 -280 -316 0
-6 -281 -317 0
-6 -282 -318 0
-6 -283 -319 0
-6 -284 -320 0
-6 -285 -321 0
-7 -280 -322 0
-7 -281 -323 0
-7 -282 -324 0
-7 -283 -325 0
-7 -284 -326 0
-7 -285 -327 0
-8 -280 -328 0
-8 -281 -329 0
-8 -282 -330 0
-8 -283 -331 0
-8 -284 -332 0
-8 -285 -333 0
-9 -280 -334 0
-9 -281 -335 0
-9 -282 -336 0
-9 -283 -337 0
-9 -284 -338 0
-9 -285 -339 0
-10 -280 -340 0
-10 -281 -341 0
-10 -282 -342 0
-10 -283 -343 0
-10 -284 -344 0
-10 -285 -345 0
-11 -280 -346 0
-11 -281 -347 0
-11 -282 -348 0
-11 -283 -349 0
-11 -284 -350 0
-11 -285 -351 0
-12 -280 -352 0
-12 -281 -353 0
-12 -282 -354 0
-12 -283 -355 0
-12 -284 -356 0
-12 -285 -357 0
-13 -280 -358 0
-13 -281 -359 0
-13 -282 -360 0
-13 -283 -361 0
-13 -284 -362 0
-13 -285 -363 0
-14 -280 -364 0
-14 -281 -365 0
-14 -282 -366 0
-14 -283 -367 0
-14 -284 -368 0
-14 -285 -369 0
-15 -280 -370 0
-15 -281 -371 0
-15 -282 -372 0
-15 -283 -373 0
-15 -284 -374 0
-15 -285 -375 0
-16 -280 -376 0
-16 -281 -377 0
-16 -282 -378 0
-16 -283 -379 0
-16 -284 -380 0
-16 -285 -381 0
-17 -280 -382 0
-17 -281 -383 0
-17 -282 -384 0
-17 -283 -385 0
-17 -284 -386 0
-17 -285 -387 0
-18 -286 -292 0
-18 -287 -293 0
-18 -288 -294 0
-18 -289 -295 0
-18 -290 -296 0
-18 -291 -297 0
-19 -286 -298 0
-19 -287 -299 0
-19 -288 -300 0
-19 -289 -301 0
-19 -290 -302 0
-19 -291 -303 0
-20 -286 -304 0
-20 -287 -305 0
-20 -288 -306 0
-20 -289 -307 0
-20 -290 -308 0
-20 -291 -309 0
-21 -286 -310 0
-21 -287 -311 0
-21 -288 -312 0
-21 -289 -313 0
-21 -290 -314 0
-21 -291 -315 0
-22 -286 -316 0
-22 -287 -317 0
-22 -288 -318 0
-22 -289 -319 0
-22 -290 -320 0
-22 -291 -321 0
-23 -286 -322 0
-23 -287 -323 0
-23 -288 -324 0
-23 -289 -325 0
-23 -290 -326 0
-23 -291 -327 0
-24 -286 -328 0
-24 -287 -329 0
-24 -288 -330 0
-24 -289 -331 0
-24 -290 -332 0
-24 -291 -333 0
-25 -286 -334 0
-25 -287 -335 0
-25 -288 -336 0
-25 -289 -337 0
-25 -290 -338 0
-25 -291 -339 0
-26 -286 -340 0
-26 -287 -341 0
-26 -288 -342 0
-26 -289 -343 0
-26 -290 -344 0
-26 -291 -345 0
-27 -286 -346 0
-27 -287 -347 0
-27 -288 -348 0
-27 -289 -349 0
-27 -290 -350 0
-27 -291 -351 0
-28 -286 -352 0
-28 -287 -353 0
-28 -288 -354 0
-28 -289 -355 0
-28 -290 -356 0
-28 -291 -357 0
-29 -286 -358 0
-29 -287 -359 0
-29 -288 -360 0
-29 -289 -361 0
-29 -290 -362 0
-29 -291 -363 0
-30 -286 -364 0
-30 -287 -365 0
-30 -288 -366 0
-30 -289 -367 0
-30 -290 -368 0
-30 -291 -369 0
-31 -286 -370 0
-31 -287 -371 0
-31 -288 -372 0
-31 -289 -373 0
-31 -290 -374 0
-31 -291 -375 0
-32 -286 -376 0
-32 -287 -377 0
-32 -288 -378 0
-32 -289 -379 0
-32 -290 -380 0
-32 -291 -381 0
-33 -286 -382 0
-33 -287 -383 0
-33 -288 -384 0
-33 -289 -385 0
-33 -290 -386 0
-33 -291 -387 0
-34 -292 -298 0
-34 -293 -299 0
-34 -294 -300 0
-34 -295 -301 0
-34 -296 -302 0
-34 -297 -303 0
-35 -292 -304 0
-35 -293 -305 0
-35 -294 -306 0
-35 -295 -307 0
-35 -296 -308 0
-35 -297 -309 0
-36 -292 -310 0
-36 -293 -311 0
-36 -294 -312 0
-36 -295 -313 0
-36 -296 -314 0
-36 -297 -315 0
-37 -292 -316 0
-37 -293 -317 0
-37 -294 -318 0
-37 -295 -319 0
-37 -296 -320 0
-37 -297 -321 0
-38 -292 -322 0
-38 -293 -323 0
-38 -294 -324 0
-38 -295 -325 0
-38 -296 -326 0
-38 -297 -327 0
-39 -292 -328 0
-39 -293 -329 0
-39 -294 -330 0
-39 -295 -331 0
-39 -296 -332 0
-39 -297 -333 0
-40 -292 -334 0
-40 -293 -335 0
-40 -294 -336 0
-40 -295 -337 0
-40 -296 -338 0
-40 -297 -339 0
-41 -292 -340 0
-41 -293 -341 0
-41 -294 -342 0
-41 -295 -343 0
-41 -296 -344 0
-41 -297 -345 0
-42 -292 -346 0
-42 -293 -347 0
-42 -294 -348 0
-42 -295 -349 0
-42 -296 -350 0
-42 -297 -351 0
-43 -292 -352 0
-43 -293 -353 0
-43 -294 -354 0
-43 -295 -355 0
-43 -296 -356 0
-43 -297 -357 0
-44 -292 -358 0
-44 -293 -359 0
-44 -294 -360 0
-44 -295 -361 0
-44 -296 -362 0
-44 -297 -363 0
-45 -292 -364 0
-45 -293 -365 0
-45 -294 -366 0
-45 -295 -367 0
-45 -296 -368 0
-45 -297 -369 0
-46 -292 -370 0
-46 -293 -371 0
-46 -294 -372 0
-46 -295 -373 0
-46 -296 -374 0
-46 -297 -375 0
-47 -292 -376 0
-47 -293 -377 0
-47 -294 -378 0
-47 -295 -379 0
-47 -296 -380 0
-47 -297 -381 0
-48 -292 -382 0
-48 -293 -383 0
-48 -294 -384 0
-48 -295 -385 0
-48 -296 -386 0
-48 -297 -387 0
-49 -298 -304 0
-49 -299 -305 0
-49 -300 -306 0
-49 -301 -307 0
-49 -302 -308 0
-49 -303 -309 0
-50 -298 -310 0
-50 -299 -311 0
-50 -300 -312 0
-50 -301 -313 0
-50 -302 -314 0
-50 -303 -315 0
-51 -298 -316 0
-51 -299 -317 0
-51 -300 -318 0
-51 -301 -319 0
-51 -302 -320 0
-51 -303 -321 0
-52 -298 -322 0
-52 -299 -323 0
-52 -300 -324 0
-52 -301 -325 0
-52 -302 -326 0
-52 -303 -327 0
-53 -298 -328 0
-53 -299 -329 0
-53 -300 -330 0
-53 -301 -331 0
-53 -302 -332 0
-53 -303 -333 0
-54 -298 -334 0
-54 -299 -335 0
-54 -300 -336 0
-54 -301 -337 0
-54 -302 -338 0
-54 -303 -339 0
-55 -298 -340 0
-55 -299 -341 0
-55 -300 -342 0
-55 -301 -343 0
-55 -302 -344 0
-55 -303 -345 0
-56 -298 -346 0
-56 -299 -347 0
-56 -300 -348 0
-56 -301 -349 0
-56 -302 -350 0
-56 -303 -351 0
-57 -298 -352 0
-57 -299 -353 0
-57 -300 -354 0
-57 -301 -355 0
-57 -302 -356 0
-57 -303 -357 0
-58 -298 -358 0
-58 -299 -359 0
-58 -300 -360 0
-58 -301 -361 0
-58 -302 -362 0
-58 -303 -363 0
-59 -298 -364 0
-59 -299 -365 0
-59 -300 -366 0
-59 -301 -367 0
-59 -302 -368 0
-59 -303 -369 0
-60 -298 -370 0
-60 -299 -371 0
-60 -300 -372 0
-60 -301 -373 0
-60 -302 -374 0
-60 -303 -375 0
-61 -298 -376 0
-61 -299 -377 0
-61 -300 -378 0
-61 -301 -379 0
-61 -302 -380 0
-61 -303 -381 0
-62 -298 -382 0
-62 -299 -383 0
-62 -300 -384 0
-62 -301 -385 0
-62 -302 -386 0
-62 -303 -387 0
-63 -304 -310 0
-63 -305 -311 0
-63 -306 -312 0
-63 -307 -313 0
-63 -308 -314 0
-63 -309 -315 0
-64 -304 -316 0
-64 -305 -317 0
-64 -306 -318 0
-64 -307 -319 0
-64 -308 -320 0
-64 -309 -321 0
-65 -304 -322 0
-65 -305 -323 0
-65 -306 -324 0
-65 -307 -325 0
-65 -308 -326 0
-65 -309 -327 0
-66 -304 -328 0
-66 -305 -329 0
-66 -306 -330 0
-66 -307 -331 0
-66 -308 -332 0
-66 -309 -333 0
-67 -304 -334 0
-67 -305 -335 0
-67 -306 -336 0
-67 -307 -337 0
-67 -308 -338 0
-67 -309 -339 0
-68 -304 -340 0
-68 -305 -341 0
-68 -306 -342 0
-68 -307 -343 0
-68 -308 -344 0
-68 -309 -345 0
-69 -304 -346 0
-69 -305 -347 0
-69 -306 -348 0
-69 -307 -349 0
-69 -308 -350 0
-69 -309 -351 0
-70 -304 -352 0
-70 -305 -353 0
-70 -306 -354 0
-70 -307 -355 0
-70 -308 -356 0
-70 -309 -357 0
-71 -304 -358 0
-71 -305 -359 0
-71 -306 -360 0
-71 -307 -361 0
-71 -308 -362 0
-71 -309 -363 0
-72 -304 -364 0
-72 -305 -365 0
-72 -306 -366 0
-72 -307 -367 0
-72 -308 -368 0
-72 -309 -369 0
-73 -304 -370 0
-73 -305 -371 0
-73 -306 -372 0
-73 -307 -373 0
-73 -308 -374 0
-73 -309 -375 0
-74 -304 -376 0
-74 -305 -377 0
-74 -306 -378 0
-74 -307 -379 0
-74 -308 -380 0
-74 -309 -381 0
-75 -304 -382 0
-75 -305 -383 0
-75 -306 -384 0
-75 -307 -385 0
-75 -308 -386 0
-75 -309 -387 0
-76 -310 -316 0
-76 -311 -317 0
-76 -312 -318 0
-76 -313 -319 0
-76 -314 -320 0
-76 -315 -321 0
-77 -310 -322 0
-77 -311 -323 0
-77 -312 -324 0
-77 -313 -325 0
-77 -314 -326 0
-77 -315 -327 0
-78 -310 -328 0
-78 -311 -329 0
-78 -312 -330 0
-78 -313 -331 0
-78 -314 -332 0
-78 -315 -333 0
-79 -310 -334 0
-79 -311 -335 0
-79 -312 -336 0
-79 -313 -337 0
-79 -314 -338 0
-79 -315 -339 0
-80 -310 -340 0
-80 -311 -341 0
-80 -312 -342 0
-80 -313 -343 0
-80 -314 -344 0
-80 -315 -345 0
-81 -310 -346 0
-81 -311 -347 0
-81 -312 -348 0
-81 -313 -349 0
-81 -314 -350 0
-81 -315 -351 0
-82 -310 -352 0
-82 -311 -353 0
-82 -312 -354 0
-82 -313 -355 0
-82 -314 -356 0
-82 -315 -357 0
-83 -310 -358 0
-83 -311 -359 0
-83 -312 -360 0
-83 -313 -361 0
-83 -314 -362 0
-83 -315 -363 0
-84 -310 -364 0
-84 -311 -365 0
-84 -312 -366 0
-84 -313 -367 0
-84 -314 -368 0
-84 -315 -369 0
-85 -310 -370 0
-85 -311 -371 0
-85 -312 -372 0
-85 -313 -373 0
-85 -314 -374 0
-85 -315 -375 0
-86 -310 -376 0
-86 -311 -377 0
-86 -312 -378 0
-86 -313 -379 0
-86 -314 -380 0
-86 -315 -381 0
-87 -310 -382 0
-87 -311 -383 0
-87 -312 -384 0
-87 -313 -385 0
-87 -314 -386 0
-87 -315 -387 0
-88 -316 -322 0
-88 -317 -323 0
-88 -318 -324 0
-88 -319 -325 0
-88 -320 -326 0
-88 -321 -327 0
-89 -316 -328 0
-89 -317 -329 0
-89 -318 -330 0
-89 -319 -331 0
-89 -320 -332 0
-89 -321 -333 0
-90 -316 -334 0
-90 -317 -335 0
-90 -318 -336 0
-90 -319 -337 0
-90 -320 -338 0
-90 -321 -339 0
-91 -316 -340 0
-91 -317 -341 0
-91 -318 -342 0
-91 -319 -343 0
-91 -320 -344 0
-91 -321 -345 0
-92 -316 -346 0
-92 -317 -347 0
-92 -318 -348 0
-92 -319 -349 0
-92 -320 -350 0
-92 -321 -351 0
-93 -316 -352 0
-93 -317 -353 0
-93 -318 -354 0
-93 -319 -355 0
-93 -320 -356 0
-93 -321 -357 0
-94 -316 -358 0
-94 -317 -359 0
-94 -318 -360 0
-94 -319 -361 0
-94 -320 -362 0
-94 -321 -363 0
-95 -316 -364 0
-95 -317 -365 0
-95 -318 -366 0
-95 -319 -367 0
-95 -320 -368 0
-95 -321 -369 0
-96 -316 -370 0
-96 -317 -371 0
-96 -318 -372 0
-96 -319 -373 0
-96 -320 -374 0
-96 -321 -375 0
-97 -316 -376 0
-97 -317 -377 0
-97 -318 -378 0
-97 -319 -379 0
-97 -320 -380 0
-97 -321 -381 0
-98 -316 -382 0
-98 -317 -383 0
-98 -318 -384 0
-98 -319 -385 0
-98 -320 -386 0
-98 -321 -387 0
-99 -322 -328 0
-99 -323 -329 0
-99 -324 -330 0
-99 -325 -331 0
-99 -326 -332 0
-99 -327 -333 0
-100 -322 -334 0
-100 -323 -335 0
-100 -324 -336 0
-100 -325 -337 0
-100 -326 -338 0
-100 -327 -339 0
-101 -322 -340 0
-101 -323 -341 0
-101 -324 -342 0
-101 -325 -343 0
-101 -326 -344 0
-101 -327 -345 0
-102 -322 -346 0
-102 -323 -347 0
-102 -324 -348 0
-102 -325 -349 0
-102 -326 -350 0
-102 -327 -351 0
-103 -322 -352 0
-103 -323 -353 0
-103 -324 -354 0
-103 -325 -355 0
-103 -326 -356 0
-103 -327 -357 0
-104 -322 -358 0
-104 -323 -359 0
-104 -324 -360 0
-104 -325 -361 0
-104 -326 -362 0
-104 -327 -363 0
-105 -322 -364 0
-105 -323 -365 0
-105 -324 -366 0
-105 -325 -367 0
-105 -326 -368 0
-105 -327 -369 0
-106 -322 -370 0
-106 -323 -371 0
-106 -324 -372 0
-106 -325 -373 0
-106 -326 -374 0
-106 -327 -375 0
-107 -322 -376 0
-107 -323 -377 0
-107 -324 -378 0
-107 -325 -379 0
-107 -326 -380 0
-107 -327 -381 0
-108 -322 -382 0
-108 -323 -383 0
-108 -324 -384 0
-108 -325 -385 0
-108 -326 -386 0
-108 -327 -387 0
-109 -328 -334 0
-109 -329 -335 0
-109 -330 -336 0
-109 -331 -337 0
-109 -332 -338 0
-109 -333 -339 0
-110 -328 -340 0
-110 -329 -341 0
-110 -330 -342 0
-110 -331 -343 0
-110 -332 -344 0
-110 -333 -345 0
-111 -328 -346 0
-111 -329 -347 0
-111 -330 -348 0
-111 -331 -349 0
-111 -332 -350 0
-111 -333 -351 0
-112 -328 -352 0
-112 -329 -353 0
-112 -330 -354 0
-112 -331 -355 0
-112 -332 -356 0
-112 -333 -357 0
-113 -328 -358 0
-113 -329 -359 0
-113 -330 -360 0
-113 -331 -361 0
-113 -332 -362 0
-113 -333 -363 0
-114 -328 -364 0
-114 -329 -365 0
-114 -330 -366 0
-114 -331 -367 0
-114 -332 -368 0
-114 -333 -369 0
-115 -328 -370 0
-115 -329 -371 0
-115 -330 -372 0
-115 -331 -373 0
-115 -332 -374 0
-115 -333 -375 0
-116 -328 -376 0
-116 -329 -377 0
-116 -330 -378 0
-116 -331 -379 0
-116 -332 -380 0
-116 -333 -381 0
-117 -328 -382 0
-117 -329 -383 0
-117 -330 -384 0
-117 -331 -385 0
-117 -332 -386 0
-117 -333 -387 0
-118 -334 -340 0
-118 -335 -341 0
-118 -336 -342 0
-118 -337 -343 0
-118 -338 -344 0
-118 -339 -345 0
-119 -334 -346 0
-119 -335 -347 0
-119 -336 -348 0
-119 -337 -349 0
-119 -338 -350 0
-119 -339 -351 0
-120 -334 -352 0
-120 -335 -353 0
-120 -336 -354 0
-120 -337 -355 0
-120 -338 -356 0
-120 -339 -357 0
-121 -334 -358 0
-121 -335 -359 0
-121 -336 -360 0
-121 -337 -361 0
-121 -338 -362 0
-121 -339 -363 0
-122 -334 -364 0
-122 -335 -365 0
-122 -336 -366 0
-122 -337 -367 0
-122 -338 -368 0
-122 -339 -369 0
-123 -334 -370 0
-123 -335 -371 0
-123 -336 -372 0
-123 -337 -373 0
-123 -338 -374 0
-123 -339 -375 0
-124 -334 -376 0
-124 -335 -377 0
-124 -336 -378 0
-124 -337 -379 0
-124 -338 -380 0
-124 -339 -381 0
-125 -334 -382 0
-125 -335 -383 0
-125 -336 -384 0
-125 -337 -385 0
-125 -338 -386 0
-125 -339 -387 0
-126 -340 -346 0
-126 -341 -347 0
-126 -342 -348 0
-126 -343 -349 0
-126 -344 -350 0
-126 -345 -351 0
-127 -340 -352 0
-127 -341 -353 0
-127 -342 -354 0
-127 -343 -355 0
-127 -344 -356 0
-127 -345 -357 0
-128 -340 -358 0
-128 -341 -359 0
-128 -342 -360 0
-128 -343 -361 0
-128 -344 -362 0
-128 -345 -363 0
-129 -340 -364 0
-129 -341 -365 0
-129 -342 -366 0
-129 -343 -367 0
-129 -344 -368 0
-129 -345 -369 0
-130 -340 -370 0
-130 -341 -371 0
-130 -342 -372 0
-130 -343 -373 0
-130 -344 -374 0
-130 -345 -375 0
-131 -340 -376 0
-131 -341 -377 0
-131 -342 -378 0
-131 -343 -379 0
-131 -344 -380 0
-131 -345 -381 0
-132 -340 -382 0
-132 -341 -383 0
-132 -342 -384 0
-132 -343 -385 0
-132 -344 -386 0
-132 -345 -387 0
-133 -346 -352 0
-133 -347 -353 0
-133 -348 -354 0
-133 -349 -355 0
-133 -350 -356 0
-133 -351 -357 0
-134 -346 -358 0
-134 -347 -359 0
-134 -348 -360 0
-134 -349 -361 0
-134 -350 -362 0
-134 -351 -363 0
-135 -346 -364 0
-135 -347 -365 0
-135 -348 -366 0
-135 -349 -367 0
-135 -350 -368 0
-135 -351 -369 0
-136 -346 -370 0
-136 -347 -371 0
-136 -348 -372 0
-136 -349 -373 0
-136 -350 -374 0
-136 -351 -375 0
-137 -346 -376 0
-137 -347 -377 0
-137 -348 -378 0
-137 -349 -379 0
-137 -350 -380 0
-137 -351 -381 0
-138 -346 -382 0
-138 -347 -383 0
-138 -348 -384 0
-138 -349 -385 0
-138 -350 -386 0
-138 -351 -387 0
-139 -352 -358 0
-139 -353 -359 0
-139 -354 -360 0
-139 -355 -361 0
-139 -356 -362 0
-139 -357 -363 0
-140 -352 -364 0
-140 -353 -365 0
-140 -354 -366 0
-140 -355 -367 0
-140 -356 -368 0
-140 -357 -369 0
-141 -352 -370 0
-141 -353 -371 0
-141 -354 -372 0
-141 -355 -373 0
-141 -356 -374 0
-141 -357 -375 0
-142 -352 -376 0
-142 -353 -377 0
-142 -354 -378 0
-142 -355 -379 0
-142 -356 -380 0
-142 -357 -381 0
-143 -352 -382 0
-143 -353 -383 0
-143 -354 -384 0
-143 -355 -385 0
-143 -356 -386 0
-143 -357 -387 0
-144 -358 -364 0
-144 -359 -365 0
-144 -360 -366 0
-144 -361 -367 0
-144 -362 -368 0
-144 -363 -369 0
-145 -358 -370 0
-145 -359 -371 0
-145 -360 -372 0
-145 -361 -373 0
-145 -362 -374 0
-145 -363 -375 0
-146 -358 -376 0
-146 -359 -377 0
-146 -360 -378 0
-146 -361 -379 0
-146 -362 -380 0
-146 -363 -381 0
-147 -358 -382 0
-147 -359 -383 0
-147 -360 -384 0
-147 -361 -385 0
-147 -362 -386 0
-147 -363 -387 0
-148 -364 -370 0
-148 -365 -371 0
-148 -366 -372 0
-148 -367 -373 0
-148 -368 -374 0
-148 -369 -375 0
-149 -364 -376 0
-149 -365 -377 0
-149 -366 -378 0
-149 -367 -379 0
-149 -368 -380 0
-149 -369 -381 0
-150 -364 -382 0
-150 -365 -383 0
-150 -366 -384 0
-150 -367 -385 0
-150 -368 -386 0
-150 -369 -387 0
-151 -370 -376 0
-151 -371 -377 0
-151 -372 -378 0
-151 -373 -379 0
-151 -374 -380 0
-151 -375 -381 0
-152 -370 -382 0
-152 -371 -383 0
-152 -372 -384 0
-152 -373 -385 0
-152 -374 -386 0
-152 -375 -387 0
-153 -376 -382 0
-153 -377 -383 0
-153 -378 -384 0
-153 -379 -385 0
-153 -380 -386 0
-153 -381 -387 0
388 0
-244 262 0
262 -388 389 0
-244 -388 389 0
-389 -245 263 0
263 -389 390 0
-245 -389 390 0
-390 -246 264 0
264 -390 391 0
-246 -390 391 0
-391 -247 265 0
265 -391 392 0
-247 -391 392 0
-392 -248 266 0
266 -392 393 0
-248 -392 393 0
-393 -249 267 0
267 -393 394 0
-249 -393 394 0
-394 -250 268 0
268 -394 395 0
-250 -394 395 0
-395 -251 269 0
269 -395 396 0
-251 -395 396 0
-396 -252 270 0
270 -396 397 0
-252 -396 397 0
-397 -253 271 0
271 -397 398 0
-253 -397 398 0
-398 -254 272 0
272 -398 399 0
-254 -398 399 0
-399 -255 273 0
273 -399 400 0
-255 -399 400 0
-400 -256 274 0
274 -400 401 0
-256 -400 401 0
-401 -257 275 0
275 -401 402 0
-257 -401 402 0
-402 -258 276 0
276 -402 403 0
-258 -402 403 0
-403 -259 277 0
277 -403 404 0
-259 -403 404 0
-404 -260 278 0
278 -404 405 0
-260 -404 405 0
-405 -261 279 0
406 0
-226 244 0
244 -406 407 0
-226 -406 407 0
-407 -227 245 0
245 -407 408 0
-227 -407 408 0
-408 -228 246 0
246 -408 409 0
-228 -408 409 0
-409 -229 247 0
247 -409 410 0
-229 -409 410 0
-410 -230 248 0
248 -410 411 0
-230 -410 411 0
-411 -231 249 0
249 -411 412 0
-231 -411 412 0
-412 -232 250 0
250 -412 413 0
-232 -412 413 0
-413 -233 251 0
251 -413 414 0
-233 -413 414 0
-414 -234 252 0
252 -414 415 0
-234 -414 415 0
-415 -235 253 0
253 -415 416 0
-235 -415 416 0
-416 -236 254 0
254 -416 417 0
-236 -416 417 0
-417 -237 255 0
255 -417 418 0
-237 -417 418 0
-418 -238 256 0
256 -418 419 0
-238 -418 419 0
-419 -239 257 0
257 -419 420 0
-239 -419 420 0
-420 -240 258 0
258 -420 421 0
-240 -420 421 0
-421 -241 259 0
259 -421 422 0
-241 -421 422 0
-422 -242 260 0
260 -422 423 0
-242 -422 423 0
-423 -243 261 0
424 0
-208 226 0
226 -424 425 0
-208 -424 425 0
-425 -209 227 0
227 -425 426 0
-209 -425 426 0
-426 -210 228 0
228 -426 427 0
-210 -426 427 0
-427 -211 229 0
229 -427 428 0
-211 -427 428 0
-428 -212 230 0
230 -428 429 0
-212 -428 429 0
-429 -213 231 0
231 -429 430 0
-213 -429 430 0
-430 -214 232 0
232 -430 431 0
-214 -430 431 0
-431 -215 233 0
233 -431 432 0
-215 -431 432 0
-432 -216 234 0
234 -432 433 0
-216 -432 433 0
-433 -217 235 0
235 -433 434 0
-217 -433 434 0
-434 -218 236 0
236 -434 435 0
-218 -434 435 0
-435 -219 237 0
237 -435 436 0
-219 -435 436 0
-436 -220 238 0
238 -436 437 0
-220 -436 437 0
-437 -221 239 0
239 -437 438 0
-221 -437 438 0
-438 -222 240 0
240 -438 439 0
-222 -438 439 0
-439 -223 241 0
241 -439 440 0
-223 -439 440 0
-440 -224 242 0
242 -440 441 0
-224 -440 441 0
-441 -225 243 0
442 0
-190 208 0
208 -442 443 0
-190 -442 443 0
-443 -191 209 0
209 -443 444 0
-191 -443 444 0
-444 -192 210 0
210 -444 445 0
-192 -444 445 0
-445 -193 211 0
211 -445 446 0
-193 -445 446 0
-446 -194 212 0
212 -446 447 0
-194 -446 447 0
-447 -195 213 0
213 -447 448 0
-195 -447 448 0
-448 -196 214 0
214 -448 449 0
-196 -448 449 0
-449 -197 215 0
215 -449 450 0
-197 -449 450 0
-450 -198 216 0
216 -450 451 0
-198 -450 451 0
-451 -199 217 0
217 -451 452 0
-199 -451 452 0
-452 -200 218 0
218 -452 453 0
-200 -452 453 0
-453 -201 219 0
219 -453 454 0
-201 -453 454 0
-454 -202 220 0
220 -454 455 0
-202 -454 455 0
-455 -203 221 0
221 -455 456 0
-203 -455 456 0
-456 -204 222 0
222 -456 457 0
-204 -456 457 0
-457 -205 223 0
223 -457 458 0
-205 -457 458 0
-458 -206 224 0
224 -458 459 0
-206 -458 459 0
-459 -207 225 0
460 0
-172 190 0
190 -460 461 0
-172 -460 461 0
-461 -173 191 0
191 -461 462 0
-173 -461 462 0
-462 -174 192 0
192 -462 463 0
-174 -462 463 0
-463 -175 193 0
193 -463 464 0
-175 -463 464 0
-464 -176 194 0
194 -464 465 0
-176 -464 465 0
-465 -177 195 0
195 -465 466 0
-177 -465 466 0
-466 -178 196 0
196 -466 467 0
-178 -466 467 0
-467 -179 197 0
197 -467 468 0
-179 -467 468 0
-468 -180 198 0
198 -468 469 0
-180 -468 469 0
-469 -181 199 0
199 -469 470 0
-181 -469 470 0
-470 -182 200 0
200 -470 471 0
-182 -470 471 0
-471 -183 201 0
201 -471 472 0
-183 -471 472 0
-472 -184 202 0
202 -472 473 0
-184 -472 473 0
-473 -185 203 0
203 -473 474 0
-185 -473 474 0
-474 -186 204 0
204 -474 475 0
-186 -474 475 0
-475 -187 205 0
205 -475 476 0
-187 -475 476 0
-476 -188 206 0
206 -476 477 0
-188 -476 477 0
-477 -189 207 0
478 0
-154 172 0
172 -478 479 0
-154 -478 479 0
-479 -155 173 0
173 -479 480 0
-155 -479 480 0
-480 -156 174 0
174 -480 481 0
-156 -480 481 0
-481 -157 175 0
175 -481 482 0
-157 -481 482 0
-482 -158 176 0
176 -482 483 0
-158 -482 483 0
-483 -159 177 0
177 -483 484 0
-159 -483 484 0
-484 -160 178 0
178 -484 485 0
-160 -484 485 0
-485 -161 179 0
179 -485 486 0
-161 -485 486 0
-486 -162 180 0
180 -486 487 0
-162 -486 487 0
-487 -163 181 0
181 -487 488 0
-163 -487 488 0
-488 -164 182 0
182 -488 489 0
-164 -488 489 0
-489 -165 183 0
183 -489 490 0
-165 -489 490 0
-490 -166 184 0
184 -490 491 0
-166 -490 491 0
-491 -167 185 0
185 -491 492 0
-167 -491 492 0
-492 -168 186 0
186 -492 493 0
-168 -492 493 0
-493 -169 187 0
187 -493 494 0
-169 -493 494 0
-494 -170 188 0
188 -494 495 0
-170 -494 495 0
-495 -171 189 0
496 0
-284 285 0
285 -496 497 0
-284 -496 497 0
-497 -290 291 0
291 -497 498 0
-290 -497 498 0
-498 -296 297 0
297 -498 499 0
-296 -498 499 0
-499 -302 303 0
303 -499 500 0
-302 -499 500 0
-500 -308 309 0
309 -500 501 0
-308 -500 501 0
-501 -314 315 0
315 -501 502 0
-314 -501 502 0
-502 -320 321 0
321 -502 503 0
-320 -502 503 0
-503 -326 327 0
327 -503 504 0
-326 -503 504 0
-504 -332 333 0
333 -504 505 0
-332 -504 505 0
-505 -338 339 0
339 -505 506 0
-338 -505 506 0
-506 -344 345 0
345 -506 507 0
-344 -506 507 0
-507 -350 351 0
351 -507 508 0
-350 -507 508 0
-508 -356 357 0
357 -508 509 0
-356 -508 509 0
-509 -362 363 0
363 -509 510 0
-362 -509 510 0
-510 -368 369 0
369 -510 511 0
-368 -510 511 0
-511 -374 375 0
375 -511 512 0
-374 -511 512 0
-512 -380 381 0
381 -512 513 0
-380 -512 513 0
-513 -386 387 0
514 0
-283 284 0
284 -514 515 0
-283 -514 515 0
-515 -289 290 0
290 -515 516 0
-289 -515 516 0
-516 -295 296 0
296 -516 517 0
-295 -516 517 0
-517 -301 302 0
302 -517 518 0
-301 -517 518 0
-518 -307 308 0
308 -518 519 0
-307 -518 519 0
-519 -313 314 0
314 -519 520 0
-313 -519 520 0
-520 -319 320 0
320 -520 521 0
-319 -520 521 0
-521 -325 326 0
326 -521 522 0
-325 -521 522 0
-522 -331 332 0
332 -522 523 0
-331 -522 523 0
-523 -337 338 0
338 -523 524 0
-337 -523 524 0
-524 -343 344 0
344 -524 525 0
-343 -524 525 0
-525 -349 350 0
350 -525 526 0
-349 -525 526 0
-526 -355 356 0
356 -526 527 0
-355 -526 527 0
-527 -361 362 0
362 -527 528 0
-361 -527 528 0
-528 -367 368 0
368 -528 529 0
-367 -528 529 0
-529 -373 374 0
374 -529 530 0
-373 -529 530 0
-530 -379 380 0
380 -530 531 0
-379 -530 531 0
-531 -385 386 0
532 0
-282 283 0
283 -532 533 0
-282 -532 533 0
-533 -288 289 0
289 -533 534 0
-288 -533 534 0
-534 -294 295 0
295 -534 535 0
-294 -534 535 0
-535 -300 301 0
301 -535 536 0
-300 -535 536 0
-536 -306 307 0
307 -536 537 0
-306 -536 537 0
-537 -312 313 0
313 -537 538 0
-312 -537 538 0
-538 -318 319 0
319 -538 539 0
-318 -538 539 0
-539 -324 325 0
325 -539 540 0
-324 -539 540 0
-540 -330 331 0
331 -540 541 0
-330 -540 541 0
-541 -336 337 0
337 -541 542 0
-336 -541 542 0
-542 -342 343 0
343 -542 543 0
-342 -542 543 0
-543 -348 349 0
349 -543 544 0
-348 -543 544 0
-544 -354 355 0
355 -544 545 0
-354 -544 545 0
-545 -360 361 0
361 -545 546 0
-360 -545 546 0
-546 -366 367 0
367 -546 547 0
-366 -546 547 0
-547 -372 373 0
373 -547 548 0
-372 -547 548 0
-548 -378 379 0
379 -548 549 0
-378 -548 549 0
-549 -384 385 0
550 0
-281 282 0
282 -550 551 0
-281 -550 551 0
-551 -287 288 0
288 -551 552 0
-287 -551 552 0
-552 -293 294 0
294 -552 553 0
-293 -552 553 0
-553 -299 300 0
300 -553 554 0
-299 -553 554 0
-554 -305 306 0
306 -554 555 0
-305 -554 555 0
-555 -311 312 0
312 -555 556 0
-311 -555 556 0
-556 -317 318 0
318 -556 557 0
-317 -556 557 0
-557 -323 324 0
324 -557 558 0
-323 -557 558 0
-558 -329 330 0
330 -558 559 0
-329 -558 559 0
-559 -335 336 0
336 -559 560 0
-335 -559 560 0
-560 -341 342 0
342 -560 561 0
-341 -560 561 0
-561 -347 348 0
348 -561 562 0
-347 -561 562 0
-562 -353 354 0
354 -562 563 0
-353 -562 563 0
-563 -359 360 0
360 -563 564 0
-359 -563 564 0
-564 -365 366 0
366 -564 565 0
-365 -564 565 0
-565 -371 372 0
372 -565 566 0
-371 -565 566 0
-566 -377 378 0
378 -566 567 0
-377 -566 567 0
-567 -383 384 0
568 0
-280 281 0
281 -568 569 0
-280 -568 569 0
-569 -286 287 0
287 -569 570 0
-286 -569 570 0
-570 -292 293 0
293 -570 571 0
-292 -570 571 0
-571 -298 299 0
299 -571 572 0
-298 -571 572 0
-572 -304 305 0
305 -572 573 0
-304 -572 573 0
-573 -310 311 0
311 -573 574 0
-310 -573 574 0
-574 -316 317 0
317 -574 575 0
-316 -574 575 0
-575 -322 323 0
323 -575 576 0
-322 -575 576 0
-576 -328 329 0
329 -576 577 0
-328 -576 577 0
-577 -334 335 0
335 -577 578 0
-334 -577 578 0
-578 -340 341 0
341 -578 579 0
-340 -578 579 0
-579 -346 347 0
347 -579 580 0
-346 -579 580 0
-580 -352 353 0
353 -580 581 0
-352 -580 581 0
-581 -358 359 0
359 -581 582 0
-358 -581 582 0
-582 -364 365 0
365 -582 583 0
-364 -582 583 0
-583 -370 371 0
371 -583 584 0
-370 -583 584 0
-584 -376 377 0
377 -584 585 0
-376 -584 585 0
-585 -382 383 0
586 0
-154 155 0
155 -586 587 0
-154 -586 587 0
-587 -155 154 0
154 -587 588 0
-155 -587 588 0
-588 -172 173 0
173 -588 589 0
-172 -588 589 0
-589 -173 172 0
172 -589 590 0
-173 -589 590 0
-590 -190 191 0
191 -590 591 0
-190 -590 591 0
-591 -191 190 0
190 -591 592 0
-191 -591 592 0
-592 -208 209 0
209 -592 593 0
-208 -592 593 0
-593 -209 208 0
208 -593 594 0
-209 -593 594 0
-594 -226 227 0
227 -594 595 0
-226 -594 595 0
-595 -227 226 0
226 -595 596 0
-227 -595 596 0
-596 -244 245 0
245 -596 597 0
-244 -596 597 0
-597 -245 244 0
244 -597 598 0
-245 -597 598 0
-598 -262 263 0
263 -598 599 0
-262 -598 599 0
-599 -263 262 0
262 -599 600 0
-263 -599 600 0
-600 -280 286 0
286 -600 601 0
-280 -600 601 0
-601 -286 280 0
280 -601 602 0
-286 -601 602 0
-602 -281 287 0
287 -602 603 0
-281 -602 603 0
-603 -287 281 0
281 -603 604 0
-287 -603 604 0
-604 -282 288 0
288 -604 605 0
-282 -604 605 0
-605 -288 282 0
282 -605 606 0
-288 -605 606 0
-606 -283 289 0
289 -606 607 0
-283 -606 607 0
-607 -289 283 0
283 -607 608 0
-289 -607 608 0
-608 -284 290 0
290 -608 609 0
-284 -608 609 0
-609 -290 284 0
284 -609 610 0
-290 -609 610 0
-610 -285 291 0
291 -610 611 0
-285 -610 611 0
-611 -291 285 0
285 -611 612 0
-291 -611 612 0
-612 -2 18 0
18 -612 613 0
-2 -612 613 0
-613 -3 19 0
19 -613 614 0
-3 -613 614 0
-614 -4 20 0
615 0
-155 156 0
156 -615 616 0
-155 -615 616 0
-616 -156 155 0
155 -616 617 0
-156 -616 617 0
-617 -173 174 0
174 -617 618 0
-173 -617 618 0
-618 -174 173 0
173 -618 619 0
-174 -618 619 0
-619 -191 192 0
192 -619 620 0
-191 -619 620 0
-620 -192 191 0
191 -620 621 0
-192 -620 621 0
-621 -209 210 0
210 -621 622 0
-209 -621 622 0
-622 -210 209 0
209 -622 623 0
-210 -622 623 0
-623 -227 228 0
228 -623 624 0
-227 -623 624 0
-624 -228 227 0
227 -624 625 0
-228 -624 625 0
-625 -245 246 0
246 -625 626 0
-245 -625 626 0
-626 -246 245 0
245 -626 627 0
-246 -626 627 0
-627 -263 264 0
264 -627 628 0
-263 -627 628 0
-628 -264 263 0
263 -628 629 0
-264 -628 629 0
-629 -286 292 0
292 -629 630 0
-286 -629 630 0
-630 -292 286 0
286 -630 631 0
-292 -630 631 0
-631 -287 293 0
293 -631 632 0
-287 -631 632 0
-632 -293 287 0
287 -632 633 0
-293 -632 633 0
-633 -288 294 0
294 -633 634 0
-288 -633 634 0
-634 -294 288 0
288 -634 635 0
-294 -634 635 0
-635 -289 295 0
295 -635 636 0
-289 -635 636 0
-636 -295 289 0
289 -636 637 0
-295 -636 637 0
-637 -290 296 0
296 -637 638 0
-290 -637 638 0
-638 -296 290 0
290 -638 639 0
-296 -638 639 0
-639 -291 297 0
297 -639 640 0
-291 -639 640 0
-640 -297 291 0
291 -640 641 0
-297 -640 641 0
-641 -1 2 0
2 -641 642 0
-1 -641 642 0
-642 -2 1 0
1 -642 643 0
-2 -642 643 0
-643 -19 34 0
644 0
-156 157 0
157 -644 645 0
-156 -644 645 0
-645 -157 156 0
156 -645 646 0
-157 -645 646 0
-646 -174 175 0
175 -646 647 0
-174 -646 647 0
-647 -175 174 0
174 -647 648 0
-175 -647 648 0
-648 -192 193 0
193 -648 649 0
-192 -648 649 0
-649 -193 192 0
192 -649 650 0
-193 -649 650 0
-650 -210 211 0
211 -650 651 0
-210 -650 651 0
-651 -211 210 0
210 -651 652 0
-211 -651 652 0
-652 -228 229 0
229 -652 653 0
-228 -652 653 0
-653 -229 228 0
228 -653 654 0
-229 -653 654 0
-654 -246 247 0
247 -654 655 0
-246 -654 655 0
-655 -247 246 0
246 -655 656 0
-247 -655 656 0
-656 -264 265 0
265 -656 657 0
-264 -656 657 0
-657 -265 264 0
264 -657 658 0
-265 -657 658 0
-658 -292 298 0
298 -658 659 0
-292 -658 659 0
-659 -298 292 0
292 -659 660 0
-298 -659 660 0
-660 -293 299 0
299 -660 661 0
-293 -660 661 0
-661 -299 293 0
293 -661 662 0
-299 -661 662 0
-662 -294 300 0
300 -662 663 0
-294 -662 663 0
-663 -300 294 0
294 -663 664 0
-300 -663 664 0
-664 -295 301 0
301 -664 665 0
-295 -664 665 0
-665 -301 295 0
295 -665 666 0
-301 -665 666 0
-666 -296 302 0
302 -666 667 0
-296 -666 667 0
-667 -302 296 0
296 -667 668 0
-302 -667 668 0
-668 -297 303 0
303 -668 669 0
-297 -668 669 0
-669 -303 297 0
297 -669 670 0
-303 -669 670 0
-670 -2 3 0
3 -670 671 0
-2 -670 671 0
-671 -3 2 0
2 -671 672 0
-3 -671 672 0
-672 -18 19 0
673 0
-157 158 0
158 -673 674 0
-157 -673 674 0
-674 -158 157 0
157 -674 675 0
-158 -674 675 0
-675 -175 176 0
176 -675 676 0
-175 -675 676 0
-676 -176 175 0
175 -676 677 0
-176 -676 677 0
-677 -193 194 0
194 -677 678 0
-193 -677 678 0
-678 -194 193 0
193 -678 679 0
-194 -678 679 0
-679 -211 212 0
212 -679 680 0
-211 -679 680 0
-680 -212 211 0
211 -680 681 0
-212 -680 681 0
-681 -229 230 0
230 -681 682 0
-229 -681 682 0
-682 -230 229 0
229 -682 683 0
-230 -682 683 0
-683 -247 248 0
248 -683 684 0
-247 -683 684 0
-684 -248 247 0
247 -684 685 0
-248 -684 685 0
-685 -265 266 0
266 -685 686 0
-265 -685 686 0
-686 -266 265 0
265 -686 687 0
-266 -686 687 0
-687 -298 304 0
304 -687 688 0
-298 -687 688 0
-688 -304 298 0
298 -688 689 0
-304 -688 689 0
-689 -299 305 0
305 -689 690 0
-299 -689 690 0
-690 -305 299 0
299 -690 691 0
-305 -690 691 0
-691 -300 306 0
306 -691 692 0
-300 -691 692 0
-692 -306 300 0
300 -692 693 0
-306 -692 693 0
-693 -301 307 0
307 -693 694 0
-301 -693 694 0
-694 -307 301 0
301 -694 695 0
-307 -694 695 0
-695 -302 308 0
308 -695 696 0
-302 -695 696 0
-696 -308 302 0
302 -696 697 0
-308 -696 697 0
-697 -303 309 0
309 -697 698 0
-303 -697 698 0
-698 -309 303 0
303 -698 699 0
-309 -698 699 0
-699 -3 4 0
4 -699 700 0
-3 -699 700 0
-700 -4 3 0
3 -700 701 0
-4 -700 701 0
-701 -19 20 0
702 0
-158 159 0
159 -702 703 0
-158 -702 703 0
-703 -159 158 0
158 -703 704 0
-159 -703 704 0
-704 -176 177 0
177 -704 705 0
-176 -704 705 0
-705 -177 176 0
176 -705 706 0
-177 -705 706 0
-706 -194 195 0
195 -706 707 0
-194 -706 707 0
-707 -195 194 0
194 -707 708 0
-195 -707 708 0
-708 -212 213 0
213 -708 709 0
-212 -708 709 0
-709 -213 212 0
212 -709 710 0
-213 -709 710 0
-710 -230 231 0
231 -710 711 0
-230 -710 711 0
-711 -231 230 0
230 -711 712 0
-231 -711 712 0
-712 -248 249 0
249 -712 713 0
-248 -712 713 0
-713 -249 248 0
248 -713 714 0
-249 -713 714 0
-714 -266 267 0
267 -714 715 0
-266 -714 715 0
-715 -267 266 0
266 -715 716 0
-267 -715 716 0
-716 -304 310 0
310 -716 717 0
-304 -716 717 0
-717 -310 304 0
304 -717 718 0
-310 -717 718 0
-718 -305 311 0
311 -718 719 0
-305 -718 719 0
-719 -311 305 0
305 -719 720 0
-311 -719 720 0
-720 -306 312 0
312 -720 721 0
-306 -720 721 0
-721 -312 306 0
306 -721 722 0
-312 -721 722 0
-722 -307 313 0
313 -722 723 0
-307 -722 723 0
-723 -313 307 0
307 -723 724 0
-313 -723 724 0
-724 -308 314 0
314 -724 725 0
-308 -724 725 0
-725 -314 308 0
308 -725 726 0
-314 -725 726 0
-726 -309 315 0
315 -726 727 0
-309 -726 727 0
-727 -315 309 0
309 -727 728 0
-315 -727 728 0
-728 -4 5 0
5 -728 729 0
-4 -728 729 0
-729 -5 4 0
4 -729 730 0
-5 -729 730 0
-730 -20 21 0
731 0
-159 160 0
160 -731 732 0
-159 -731 732 0
-732 -160 159 0
159 -732 733 0
-160 -732 733 0
-733 -177 178 0
178 -733 734 0
-177 -733 734 0
-734 -178 177 0
177 -734 735 0
-178 -734 735 0
-735 -195 196 0
196 -735 736 0
-195 -735 736 0
-736 -196 195 0
195 -736 737 0
-196 -736 737 0
-737 -213 214 0
214 -737 738 0
-213 -737 738 0
-738 -214 213 0
213 -738 739 0
-214 -738 739 0
-739 -231 232 0
232 -739 740 0
-231 -739 740 0
-740 -232 231 0
231 -740 741 0
-232 -740 741 0
-741 -249 250 0
250 -741 742 0
-249 -741 742 0
-742 -250 249 0
249 -742 743 0
-250 -742 743 0
-743 -267 268 0
268 -743 744 0
-267 -743 744 0
-744 -268 267 0
267 -744 745 0
-268 -744 745 0
-745 -310 316 0
316 -745 746 0
-310 -745 746 0
-746 -316 310 0
310 -746 747 0
-316 -746 747 0
-747 -311 317 0
317 -747 748 0
-311 -747 748 0
-748 -317 311 0
311 -748 749 0
-317 -748 749 0
-749 -312 318 0
318 -749 750 0
-312 -749 750 0
-750 -318 312 0
312 -750 751 0
-318 -750 751 0
-751 -313 319 0
319 -751 752 0
-313 -751 752 0
-752 -319 313 0
313 -752 753 0
-319 -752 753 0
-753 -314 320 0
320 -753 754 0
-314 -753 754 0
-754 -320 314 0
314 -754 755 0
-320 -754 755 0
-755 -315 321 0
321 -755 756 0
-315 -755 756 0
-756 -321 315 0
315 -756 757 0
-321 -756 757 0
-757 -5 6 0
6 -757 758 0
-5 -757 758 0
-758 -6 5 0
5 -758 759 0
-6 -758 759 0
-759 -21 22 0
760 0
-160 161 0
161 -760 761 0
-160 -760 761 0
-761 -161 160 0
160 -761 762 0
-161 -761 762 0
-762 -178 179 0
179 -762 763 0
-178 -762 763 0
-763 -179 178 0
178 -763 764 0
-179 -763 764 0
-764 -196 197 0
197 -764 765 0
-196 -764 765 0
-765 -197 196 0
196 -765 766 0
-197 -765 766 0
-766 -214 215 0
215 -766 767 0
-214 -766 767 0
-767 -215 214 0
214 -767 768 0
-215 -767 768 0
-768 -232 233 0
233 -768 769 0
-232 -768 769 0
-769 -233 232 0
232 -769 770 0
-233 -769 770 0
-770 -250 251 0
251 -770 771 0
-250 -770 771 0
-771 -251 250 0
250 -771 772 0
-251 -771 772 0
-772 -268 269 0
269 -772 773 0
-268 -772 773 0
-773 -269 268 0
268 -773 774 0
-269 -773 774 0
-774 -316 322 0
322 -774 775 0
-316 -774 775 0
-775 -322 316 0
316 -775 776 0
-322 -775 776 0
-776 -317 323 0
323 -776 777 0
-317 -776 777 0
-777 -323 317 0
317 -777 778 0
-323 -777 778 0
-778 -318 324 0
324 -778 779 0
-318 -778 779 0
-779 -324 318 0
318 -779 780 0
-324 -779 780 0
-780 -319 325 0
325 -780 781 0
-319 -780 781 0
-781 -325 319 0
319 -781 782 0
-325 -781 782 0
-782 -320 326 0
326 -782 783 0
-320 -782 783 0
-783 -326 320 0
320 -783 784 0
-326 -783 784 0
-784 -321 327 0
327 -784 785 0
-321 -784 785 0
-785 -327 321 0
321 -785 786 0
-327 -785 786 0
-786 -6 7 0
7 -786 787 0
-6 -786 787 0
-787 -7 6 0
6 -787 788 0
-7 -787 788 0
-788 -22 23 0
789 0
-161 162 0
162 -789 790 0
-161 -789 790 0
-790 -162 161 0
161 -790 791 0
-162 -790 791 0
-791 -179 180 0
180 -791 792 0
-179 -791 792 0
-792 -180 179 0
179 -792 793 0
-180 -792 793 0
-793 -197 198 0
198 -793 794 0
-197 -793 794 0
-794 -198 197 0
197 -794 795 0
-198 -794 795 0
-795 -215 216 0
216 -795 796 0
-215 -795 796 0
-796 -216 215 0
215 -796 797 0
-216 -796 797 0
-797 -233 234 0
234 -797 798 0
-233 -797 798 0
-798 -234 233 0
233 -798 799 0
-234 -798 799 0
-799 -251 252 0
252 -799 800 0
-251 -799 800 0
-800 -252 251 0
251 -800 801 0
-252 -800 801 0
-801 -269 270 0
270 -801 802 0
-269 -801 802 0
-802 -270 269 0
269 -802 803 0
-270 -802 803 0
-803 -322 328 0
328 -803 804 0
-322 -803 804 0
-804 -328 322 0
322 -804 805 0
-328 -804 805 0
-805 -323 329 0
329 -805 806 0
-323 -805 806 0
-806 -329 323 0
323 -806 807 0
-329 -806 807 0
-807 -324 330 0
330 -807 808 0
-324 -807 808 0
-808 -330 324 0
324 -808 809 0
-330 -808 809 0
-809 -325 331 0
331 -809 810 0
-325 -809 810 0
-810 -331 325 0
325 -810 811 0
-331 -810 811 0
-811 -326 332 0
332 -811 812 0
-326 -811 812 0
-812 -332 326 0
326 -812 813 0
-332 -812 813 0
-813 -327 333 0
333 -813 814 0
-327 -813 814 0
-814 -333 327 0
327 -814 815 0
-333 -814 815 0
-815 -7 8 0
8 -815 816 0
-7 -815 816 0
-816 -8 7 0
7 -816 817 0
-8 -816 817 0
-817 -23 24 0
818 0
-162 163 0
163 -818 819 0
-162 -818 819 0
-819 -163 162 0
162 -819 820 0
-163 -819 820 0
-820 -180 181 0
181 -820 821 0
-180 -820 821 0
-821 -181 180 0
180 -821 822 0
-181 -821 822 0
-822 -198 199 0
199 -822 823 0
-198 -822 823 0
-823 -199 198 0
198 -823 824 0
-199 -823 824 0
-824 -216 217 0
217 -824 825 0
-216 -824 825 0
-825 -217 216 0
216 -825 826 0
-217 -825 826 0
-826 -234 235 0
235 -826 827 0
-234 -826 827 0
-827 -235 234 0
234 -827 828 0
-235 -827 828 0
-828 -252 253 0
253 -828 829 0
-252 -828 829 0
-829 -253 252 0
252 -829 830 0
-253 -829 830 0
-830 -270 271 0
271 -830 831 0
-270 -830 831 0
-831 -271 270 0
270 -831 832 0
-271 -831 832 0
-832 -328 334 0
334 -832 833 0
-328 -832 833 0
-833 -334 328 0
328 -833 834 0
-334 -833 834 0
-834 -329 335 0
335 -834 835 0
-329 -834 835 0
-835 -335 329 0
329 -835 836 0
-335 -835 836 0
-836 -330 336 0
336 -836 837 0
-330 -836 837 0
-837 -336 330 0
330 -837 838 0
-336 -837 838 0
-838 -331 337 0
337 -838 839 0
-331 -838 839 0
-839 -337 331 0
331 -839 840 0
-337 -839 840 0
-840 -332 338 0
338 -840 841 0
-332 -840 841 0
-841 -338 332 0
332 -841 842 0
-338 -841 842 0
-842 -333 339 0
339 -842 843 0
-333 -842 843 0
-843 -339 333 0
333 -843 844 0
-339 -843 844 0
-844 -8 9 0
9 -844 845 0
-8 -844 845 0
-845 -9 8 0
8 -845 846 0
-9 -845 846 0
-846 -24 25 0
847 0
-163 164 0
164 -847 848 0
-163 -847 848 0
-848 -164 163 0
163 -848 849 0
-164 -848 849 0
-849 -181 182 0
182 -849 850 0
-181 -849 850 0
-850 -182 181 0
181 -850 851 0
-182 -850 851 0
-851 -199 200 0
200 -851 852 0
-199 -851 852 0
-852 -200 199 0
199 -852 853 0
-200 -852 853 0
-853 -217 218 0
218 -853 854 0
-217 -853 854 0
-854 -218 217 0
217 -854 855 0
-218 -854 855 0
-855 -235 236 0
236 -855 856 0
-235 -855 856 0
-856 -236 235 0
235 -856 857 0
-236 -856 857 0
-857 -253 254 0
254 -857 858 0
-253 -857 858 0
-858 -254 253 0
253 -858 859 0
-254 -858 859 0
-859 -271 272 0
272 -859 860 0
-271 -859 860 0
-860 -272 271 0
271 -860 861 0
-272 -860 861 0
-861 -334 340 0
340 -861 862 0
-334 -861 862 0
-862 -340 334 0
334 -862 863 0
-340 -862 863 0
-863 -335 341 0
341 -863 864 0
-335 -863 864 0
-864 -341 335 0
335 -864 865 0
-341 -864 865 0
-865 -336 342 0
342 -865 866 0
-336 -865 866 0
-866 -342 336 0
336 -866 867 0
-342 -866 867 0
-867 -337 343 0
343 -867 868 0
-337 -867 868 0
-868 -343 337 0
337 -868 869 0
-343 -868 869 0
-869 -338 344 0
344 -869 870 0
-338 -869 870 0
-870 -344 338 0
338 -870 871 0
-344 -870 871 0
-871 -339 345 0
345 -871 872 0
-339 -871 872 0
-872 -345 339 0
339 -872 873 0
-345 -872 873 0
-873 -9 10 0
10 -873 874 0
-9 -873 874 0
-874 -10 9 0
9 -874 875 0
-10 -874 875 0
-875 -25 26 0
876 0
-164 165 0
165 -876 877 0
-164 -876 877 0
-877 -165 164 0
164 -877 878 0
-165 -877 878 0
-878 -182 183 0
183 -878 879 0
-182 -878 879 0
-879 -183 182 0
182 -879 880 0
-183 -879 880 0
-880 -200 201 0
201 -880 881 0
-200 -880 881 0
-881 -201 200 0
200 -881 882 0
-201 -881 882 0
-882 -218 219 0
219 -882 883 0
-218 -882 883 0
-883 -219 218 0
218 -883 884 0
-219 -883 884 0
-884 -236 237 0
237 -884 885 0
-236 -884 885 0
-885 -237 236 0
236 -885 886 0
-237 -885 886 0
-886 -254 255 0
255 -886 887 0
-254 -886 887 0
-887 -255 254 0
254 -887 888 0
-255 -887 888 0
-888 -272 273 0
273 -888 889 0
-272 -888 889 0
-889 -273 272 0
272 -889 890 0
-273 -889 890 0
-890 -340 346 0
346 -890 891 0
-340 -890 891 0
-891 -346 340 0
340 -891 892 0
-346 -891 892 0
-892 -341 347 0
347 -892 893 0
-341 -892 893 0
-893 -347 341 0
341 -893 894 0
-347 -893 894 0
-894 -342 348 0
348 -894 895 0
-342 -894 895 0
-895 -348 342 0
342 -895 896 0
-348 -895 896 0
-896 -343 349 0
349 -896 897 0
-343 -896 897 0
-897 -349 343 0
343 -897 898 0
-349 -897 898 0
-898 -344 350 0
350 -898 899 0
-344 -898 899 0
-899 -350 344 0
344 -899 900 0
-350 -899 900 0
-900 -345 351 0
351 -900 901 0
-345 -900 901 0
-901 -351 345 0
345 -901 902 0
-351 -901 902 0
-902 -10 11 0
11 -902 903 0
-10 -902 903 0
-903 -11 10 0
10 -903 904 0
-11 -903 904 0
-904 -26 27 0
905 0
-165 166 0
166 -905 906 0
-165 -905 906 0
-906 -166 165 0
165 -906 907 0
-166 -906 907 0
-907 -183 184 0
184 -907 908 0
-183 -907 908 0
-908 -184 183 0
183 -908 909 0
-184 -908 909 0
-909 -201 202 0
202 -909 910 0
-201 -909 910 0
-910 -202 201 0
201 -910 911 0
-202 -910 911 0
-911 -219 220 0
220 -911 912 0
-219 -911 912 0
-912 -220 219 0
219 -912 913 0
-220 -912 913 0
-913 -237 238 0
238 -913 914 0
-237 -913 914 0
-914 -238 237 0
237 -914 915 0
-238 -914 915 0
-915 -255 256 0
256 -915 916 0
-255 -915 916 0
-916 -256 255 0
255 -916 917 0
-256 -916 917 0
-917 -273 274 0
274 -917 918 0
-273 -917 918 0
-918 -274 273 0
273 -918 919 0
-274 -918 919 0
-919 -346 352 0
352 -919 920 0
-346 -919 920 0
-920 -352 346 0
346 -920 921 0
-352 -920 921 0
-921 -347 353 0
353 -921 922 0
-347 -921 922 0
-922 -353 347 0
347 -922 923 0
-353 -922 923 0
-923 -348 354 0
354 -923 924 0
-348 -923 924 0
-924 -354 348 0
348 -924 925 0
-354 -924 925 0
-925 -349 355 0
355 -925 926 0
-349 -925 926 0
-926 -355 349 0
349 -926 927 0
-355 -926 927 0
-927 -350 356 0
356 -927 928 0
-350 -927 928 0
-928 -356 350 0
350 -928 929 0
-356 -928 929 0
-929 -351 357 0
357 -929 930 0
-351 -929 930 0
-930 -357 351 0
351 -930 931 0
-357 -930 931 0
-931 -11 12 0
12 -931 932 0
-11 -931 932 0
-932 -12 11 0
11 -932 933 0
-12 -932 933 0
-933 -27 28 0
934 0
-166 167 0
167 -934 935 0
-166 -934 935 0
-935 -167 166 0
166 -935 936 0
-167 -935 936 0
-936 -184 185 0
185 -936 937 0
-184 -936 937 0
-937 -185 184 0
184 -937 938 0
-185 -937 938 0
-938 -202 203 0
203 -938 939 0
-202 -938 939 0
-939 -203 202 0
202 -939 940 0
-203 -939 940 0
-940 -220 221 0
221 -940 941 0
-220 -940 941 0
-941 -221 220 0
220 -941 942 0
-221 -941 942 0
-942 -238 239 0
239 -942 943 0
-238 -942 943 0
-943 -239 238 0
238 -943 944 0
-239 -943 944 0
-944 -256 257 0
257 -944 945 0
-256 -944 945 0
-945 -257 256 0
256 -945 946 0
-257 -945 946 0
-946 -274 275 0
275 -946 947 0
-274 -946 947 0
-947 -275 274 0
274 -947 948 0
-275 -947 948 0
-948 -352 358 0
358 -948 949 0
-352 -948 949 0
-949 -358 352 0
352 -949 950 0
-358 -949 950 0
-950 -353 359 0
359 -950 951 0
-353 -950 951 0
-951 -359 353 0
353 -951 952 0
-359 -951 952 0
-952 -354 360 0
360 -952 953 0
-354 -952 953 0
-953 -360 354 0
354 -953 954 0
-360 -953 954 0
-954 -355 361 0
361 -954 955 0
-355 -954 955 0
-955 -361 355 0
355 -955 956 0
-361 -955 956 0
-956 -356 362 0
362 -956 957 0
-356 -956 957 0
-957 -362 356 0
356 -957 958 0
-362 -957 958 0
-958 -357 363 0
363 -958 959 0
-357 -958 959 0
-959 -363 357 0
357 -959 960 0
-363 -959 960 0
-960 -12 13 0
13 -960 961 0
-12 -960 961 0
-961 -13 12 0
12 -961 962 0
-13 -961 962 0
-962 -28 29 0
963 0
-167 168 0
168 -963 964 0
-167 -963 964 0
-964 -168 167 0
167 -964 965 0
-168 -964 965 0
-965 -185 186 0
186 -965 966 0
-185 -965 966 0
-966 -186 185 0
185 -966 967 0
-186 -966 967 0
-967 -203 204 0
204 -967 968 0
-203 -967 968 0
-968 -204 203 0
203 -968 969 0
-204 -968 969 0
-969 -221 222 0
222 -969 970 0
-221 -969 970 0
-970 -222 221 0
221 -970 971 0
-222 -970 971 0
-971 -239 240 0
240 -971 972 0
-239 -971 972 0
-972 -240 239 0
239 -972 973 0
-240 -972 973 0
-973 -257 258 0
258 -973 974 0
-257 -973 974 0
-974 -258 257 0
257 -974 975 0
-258 -974 975 0
-975 -275 276 0
276 -975 976 0
-275 -975 976 0
-976 -276 275 0
275 -976 977 0
-276 -976 977 0
-977 -358 364 0
364 -977 978 0
-358 -977 978 0
-978 -364 358 0
358 -978 979 0
-364 -978 979 0
-979 -359 365 0
365 -979 980 0
-359 -979 980 0
-980 -365 359 0
359 -980 981 0
-365 -980 981 0
-981 -360 366 0
366 -981 982 0
-360 -981 982 0
-982 -366 360 0
360 -982 983 0
-366 -982 983 0
-983 -361 367 0
367 -983 984 0
-361 -983 984 0
-984 -367 361 0
361 -984 985 0
-367 -984 985 0
-985 -362 368 0
368 -985 986 0
-362 -985 986 0
-986 -368 362 0
362 -986 987 0
-368 -986 987 0
-987 -363 369 0
369 -987 988 0
-363 -987 988 0
-988 -369 363 0
363 -988 989 0
-369 -988 989 0
-989 -13 14 0
14 -989 990 0
-13 -989 990 0
-990 -14 13 0
13 -990 991 0
-14 -990 991 0
-991 -29 30 0
992 0
-168 169 0
169 -992 993 0
-168 -992 993 0
-993 -169 168 0
168 -993 994 0
-169 -993 994 0
-994 -186 187 0
187 -994 995 0
-186 -994 995 0
-995 -187 186 0
186 -995 996 0
-187 -995 996 0
-996 -204 205 0
205 -996 997 0
-204 -996 997 0
-997 -205 204 0
204 -997 998 0
-205 -997 998 0
-998 -222 223 0
223 -998 999 0
-222 -998 999 0
-999 -223 222 0
222 -999 1000 0
-223 -999 1000 0
-1000 -240 241 0
241 -1000 1001 0
-240 -1000 1001 0
-1001 -241 240 0
240 -1001 1002 0
-241 -1001 1002 0
-1002 -258 259 0
259 -1002 1003 0
-258 -1002 1003 0
-1003 -259 258 0
258 -1003 1004 0
-259 -1003 1004 0
-1004 -276 277 0
277 -1004 1005 0
-276 -1004 1005 0
-1005 -277 276 0
276 -1005 1006 0
-277 -1005 1006 0
-1006 -364 370 0
370 -1006 1007 0
-364 -1006 1007 0
-1007 -370 364 0
364 -1007 1008 0
-370 -1007 1008 0
-1008 -365 371 0
371 -1008 1009 0
-365 -1008 1009 0
-1009 -371 365 0
365 -1009 1010 0
-371 -1009 1010 0
-1010 -366 372 0
372 -1010 1011 0
-366 -1010 1011 0
-1011 -372 366 0
366 -1011 1012 0
-372 -1011 1012 0
-1012 -367 373 0
373 -1012 1013 0
-367 -1012 1013 0
-1013 -373 367 0
367 -1013 1014 0
-373 -1013 1014 0
-1014 -368 374 0
374 -1014 1015 0
-368 -1014 1015 0
-1015 -374 368 0
368 -1015 1016 0
-374 -1015 1016 0
-1016 -369 375 0
375 -1016 1017 0
-369 -1016 1017 0
-1017 -375 369 0
369 -1017 1018 0
-375 -1017 1018 0
-1018 -14 15 0
15 -1018 1019 0
-14 -1018 1019 0
-1019 -15 14 0
14 -1019 1020 0
-15 -1019 1020 0
-1020 -30 31 0
1021 0
-169 170 0
170 -1021 1022 0
-169 -1021 1022 0
-1022 -170 169 0
169 -1022 1023 0
-170 -1022 1023 0
-1023 -187 188 0
188 -1023 1024 0
-187 -1023 1024 0
-1024 -188 187 0
187 -1024 1025 0
-188 -1024 1025 0
-1025 -205 206 0
206 -1025 1026 0
-205 -1025 1026 0
-1026 -206 205 0
205 -1026 1027 0
-206 -1026 1027 0
-1027 -223 224 0
224 -1027 1028 0
-223 -1027 1028 0
-1028 -224 223 0
223 -1028 1029 0
-224 -1028 1029 0
-1029 -241 242 0
242 -1029 1030 0
-241 -1029 1030 0
-1030 -242 241 0
241 -1030 1031 0
-242 -1030 1031 0
-1031 -259 260 0
260 -1031 1032 0
-259 -1031 1032 0
-1032 -260 259 0
259 -1032 1033 0
-260 -1032 1033 0
-1033 -277 278 0
278 -1033 1034 0
-277 -1033 1034 0
-1034 -278 277 0
277 -1034 1035 0
-278 -1034 1035 0
-1035 -370 376 0
376 -1035 1036 0
-370 -1035 1036 0
-1036 -376 370 0
370 -1036 1037 0
-376 -1036 1037 0
-1037 -371 377 0
377 -1037 1038 0
-371 -1037 1038 0
-1038 -377 371 0
371 -1038 1039 0
-377 -1038 1039 0
-1039 -372 378 0
378 -1039 1040 0
-372 -1039 1040 0
-1040 -378 372 0
372 -1040 1041 0
-378 -1040 1041 0
-1041 -373 379 0
379 -1041 1042 0
-373 -1041 1042 0
-1042 -379 373 0
373 -1042 1043 0
-379 -1042 1043 0
-1043 -374 380 0
380 -1043 1044 0
-374 -1043 1044 0
-1044 -380 374 0
374 -1044 1045 0
-380 -1044 1045 0
-1045 -375 381 0
381 -1045 1046 0
-375 -1045 1046 0
-1046 -381 375 0
375 -1046 1047 0
-381 -1046 1047 0
-1047 -15 16 0
16 -1047 1048 0
-15 -1047 1048 0
-1048 -16 15 0
15 -1048 1049 0
-16 -1048 1049 0
-1049 -31 32 0
1050 0
-170 171 0
171 -1050 1051 0
-170 -1050 1051 0
-1051 -171 170 0
170 -1051 1052 0
-171 -1051 1052 0
-1052 -188 189 0
189 -1052 1053 0
-188 -1052 1053 0
-1053 -189 188 0
188 -1053 1054 0
-189 -1053 1054 0
-1054 -206 207 0
207 -1054 1055 0
-206 -1054 1055 0
-1055 -207 206 0
206 -1055 1056 0
-207 -1055 1056 0
-1056 -224 225 0
225 -1056 1057 0
-224 -1056 1057 0
-1057 -225 224 0
224 -1057 1058 0
-225 -1057 1058 0
-1058 -242 243 0
243 -1058 1059 0
-242 -1058 1059 0
-1059 -243 242 0
242 -1059 1060 0
-243 -1059 1060 0
-1060 -260 261 0
261 -1060 1061 0
-260 -1060 1061 0
-1061 -261 260 0
260 -1061 1062 0
-261 -1061 1062 0
-1062 -278 279 0
279 -1062 1063 0
-278 -1062 1063 0
-1063 -279 278 0
278 -1063 1064 0
-279 -1063 1064 0
-1064 -376 382 0
382 -1064 1065 0
-376 -1064 1065 0
-1065 -382 376 0
376 -1065 1066 0
-382 -1065 1066 0
-1066 -377 383 0
383 -1066 1067 0
-377 -1066 1067 0
-1067 -383 377 0
377 -1067 1068 0
-383 -1067 1068 0
-1068 -378 384 0
384 -1068 1069 0
-378 -1068 1069 0
-1069 -384 378 0
378 -1069 1070 0
-384 -1069 1070 0
-1070 -379 385 0
385 -1070 1071 0
-379 -1070 1071 0
-1071 -385 379 0
379 -1071 1072 0
-385 -1071 1072 0
-1072 -380 386 0
386 -1072 1073 0
-380 -1072 1073 0
-1073 -386 380 0
380 -1073 1074 0
-386 -1073 1074 0
-1074 -381 387 0
387 -1074 1075 0
-381 -1074 1075 0
-1075 -387 381 0
381 -1075 1076 0
-387 -1075 1076 0
-1076 -16 17 0
17 -1076 1077 0
-16 -1076 1077 0
-1077 -17 16 0
16 -1077 1078 0
-17 -1077 1078 0
-1078 -32 33 0
