p cnf 3396 31056
821 822 823 824 825 826 827 828 829 830 831 832 833 834 835 836 837 838 839 840 841 842 843 844 845 846 847 848 849 850 851 852 853 854 855 856 857 858 859 860 861 0
862 863 864 865 866 867 868 869 870 871 872 873 874 875 876 877 878 879 880 881 882 883 884 885 886 887 888 889 890 891 892 893 894 895 896 897 898 899 900 901 902 0
903 904 905 906 907 908 909 910 911 912 913 914 915 916 917 918 919 920 921 922 923 924 925 926 927 928 929 930 931 932 933 934 935 936 937 938 939 940 941 942 943 0
944 945 946 947 948 949 950 951 952 953 954 955 956 957 958 959 960 961 962 963 964 965 966 967 968 969 970 971 972 973 974 975 976 977 978 979 980 981 982 983 984 0
985 986 987 988 989 990 991 992 993 994 995 996 997 998 999 1000 1001 1002 1003 1004 1005 1006 1007 1008 1009 1010 1011 1012 1013 1014 1015 1016 1017 1018 1019 1020 1021 1022 1023 1024 1025 0
-821 -822 0
-821 -823 0
-821 -824 0
-821 -825 0
-821 -826 0
-821 -827 0
-821 -828 0
-821 -829 0
-821 -830 0
-821 -831 0
-821 -832 0
-821 -833 0
-821 -834 0
-821 -835 0
-821 -836 0
-821 -837 0
-821 -838 0
-821 -839 0
-821 -840 0
-821 -841 0
-821 -842 0
-821 -843 0
-821 -844 0
-821 -845 0
-821 -846 0
-821 -847 0
-821 -848 0
-821 -849 0
-821 -850 0
-821 -851 0
-821 -852 0
-821 -853 0
-821 -854 0
-821 -855 0
-821 -856 0
-821 -857 0
-821 -858 0
-821 -859 0
-821 -860 0
-821 -861 0
-822 -823 0
-822 -824 0
-822 -825 0
-822 -826 0
-822 -827 0
-822 -828 0
-822 -829 0
-822 -830 0
-822 -831 0
-822 -832 0
-822 -833 0
-822 -834 0
-822 -835 0
-822 -836 0
-822 -837 0
-822 -838 0
-822 -839 0
-822 -840 0
-822 -841 0
-822 -842 0
-822 -843 0
-822 -844 0
-822 -845 0
-822 -846 0
-822 -847 0
-822 -848 0
-822 -849 0
-822 -850 0
-822 -851 0
-822 -852 0
-822 -853 0
-822 -854 0
-822 -855 0
-822 -856 0
-822 -857 0
-822 -858 0
-822 -859 0
-822 -860 0
-822 -861 0
-823 -824 0
-823 -825 0
-823 -826 0
-823 -827 0
-823 -828 0
-823 -829 0
-823 -830 0
-823 -831 0
-823 -832 0
-823 -833 0
-823 -834 0
-823 -835 0
-823 -836 0
-823 -837 0
-823 -838 0
-823 -839 0
-823 -840 0
-823 -841 0
-823 -842 0
-823 -843 0
-823 -844 0
-823 -845 0
-823 -846 0
-823 -847 0
-823 -848 0
-823 -849 0
-823 -850 0
-823 -851 0
-823 -852 0
-823 -853 0
-823 -854 0
-823 -855 0
-823 -856 0
-823 -857 0
-823 -858 0
-823 -859 0
-823 -860 0
-823 -861 0
-824 -825 0
-824 -826 0
-824 -827 0
-824 -828 0
-824 -829 0
-824 -830 0
-824 -831 0
-824 -832 0
-824 -833 0
-824 -834 0
-824 -835 0
-824 -836 0
-824 -837 0
-824 -838 0
-824 -839 0
-824 -840 0
-824 -841 0
-824 -842 0
-824 -843 0
-824 -844 0
-824 -845 0
-824 -846 0
-824 -847 0
-824 -848 0
-824 -849 0
-824 -850 0
-824 -851 0
-824 -852 0
-824 -853 0
-824 -854 0
-824 -855 0
-824 -856 0
-824 -857 0
-824 -858 0
-824 -859 0
-824 -860 0
-824 -861 0
-825 -826 0
-825 -827 0
-825 -828 0
-825 -829 0
-825 -830 0
-825 -831 0
-825 -832 0
-825 -833 0
-825 -834 0
-825 -835 0
-825 -836 0
-825 -837 0
-825 -838 0
-825 -839 0
-825 -840 0
-825 -841 0
-825 -842 0
-825 -843 0
-825 -844 0
-825 -845 0
-825 -846 0
-825 -847 0
-825 -848 0
-825 -849 0
-825 -850 0
-825 -851 0
-825 -852 0
-825 -853 0
-825 -854 0
-825 -855 0
-825 -856 0
-825 -857 0
-825 -858 0
-825 -859 0
-825 -860 0
-825 -861 0
-826 -827 0
-826 -828 0
-826 -829 0
-826 -830 0
-826 -831 0
-826 -832 0
-826 -833 0
-826 -834 0
-826 -835 0
-826 -836 0
-826 -837 0
-826 -838 0
-826 -839 0
-826 -840 0
-826 -841 0
-826 -842 0
-826 -843 0
-826 -844 0
-826 -845 0
-826 -846 0
-826 -847 0
-826 -848 0
-826 -849 0
-826 -850 0
-826 -851 0
-826 -852 0
-826 -853 0
-826 -854 0
-826 -855 0
-826 -856 0
-826 -857 0
-826 -858 0
-826 -859 0
-826 -860 0
-826 -861 0
-827 -828 0
-827 -829 0
-827 -830 0
-827 -831 0
-827 -832 0
-827 -833 0
-827 -834 0
-827 -835 0
-827 -836 0
-827 -837 0
-827 -838 0
-827 -839 0
-827 -840 0
-827 -841 0
-827 -842 0
-827 -843 0
-827 -844 0
-827 -845 0
-827 -846 0
-827 -847 0
-827 -848 0
-827 -849 0
-827 -850 0
-827 -851 0
-827 -852 0
-827 -853 0
-827 -854 0
-827 -855 0
-827 -856 0
-827 -857 0
-827 -858 0
-827 -859 0
-827 -860 0
-827 -861 0
-828 -829 0
-828 -830 0
-828 -831 0
-828 -832 0
-828 -833 0
-828 -834 0
-828 -835 0
-828 -836 0
-828 -837 0
-828 -838 0
-828 -839 0
-828 -840 0
-828 -841 0
-828 -842 0
-828 -843 0
-828 -844 0
-828 -845 0
-828 -846 0
-828 -847 0
-828 -848 0
-828 -849 0
-828 -850 0
-828 -851 0
-828 -852 0
-828 -853 0
-828 -854 0
-828 -855 0
-828 -856 0
-828 -857 0
-828 -858 0
-828 -859 0
-828 -860 0
-828 -861 0
-829 -830 0
-829 -831 0
-829 -832 0
-829 -833 0
-829 -834 0
-829 -835 0
-829 -836 0
-829 -837 0
-829 -838 0
-829 -839 0
-829 -840 0
-829 -841 0
-829 -842 0
-829 -843 0
-829 -844 0
-829 -845 0
-829 -846 0
-829 -847 0
-829 -848 0
-829 -849 0
-829 -850 0
-829 -851 0
-829 -852 0
-829 -853 0
-829 -854 0
-829 -855 0
-829 -856 0
-829 -857 0
-829 -858 0
-829 -859 0
-829 -860 0
-829 -861 0
-830 -831 0
-830 -832 0
-830 -833 0
-830 -834 0
-830 -835 0
-830 -836 0
-830 -837 0
-830 -838 0
-830 -839 0
-830 -840 0
-830 -841 0
-830 -842 0
-830 -843 0
-830 -844 0
-830 -845 0
-830 -846 0
-830 -847 0
-830 -848 0
-830 -849 0
-830 -850 0
-830 -851 0
-830 -852 0
-830 -853 0
-830 -854 0
-830 -855 0
-830 -856 0
-830 -857 0
-830 -858 0
-830 -859 0
-830 -860 0
-830 -861 0
-831 -832 0
-831 -833 0
-831 -834 0
-831 -835 0
-831 -836 0
-831 -837 0
-831 -838 0
-831 -839 0
-831 -840 0
-831 -841 0
-831 -842 0
-831 -843 0
-831 -844 0
-831 -845 0
-831 -846 0
-831 -847 0
-831 -848 0
-831 -849 0
-831 -850 0
-831 -851 0
-831 -852 0
-831 -853 0
-831 -854 0
-831 -855 0
-831 -856 0
-831 -857 0
-831 -858 0
-831 -859 0
-831 -860 0
-831 -861 0
-832 -833 0
-832 -834 0
-832 -835 0
-832 -836 0
-832 -837 0
-832 -838 0
-832 -839 0
-832 -840 0
-832 -841 0
-832 -842 0
-832 -843 0
-832 -844 0
-832 -845 0
-832 -846 0
-832 -847 0
-832 -848 0
-832 -849 0
-832 -850 0
-832 -851 0
-832 -852 0
-832 -853 0
-832 -854 0
-832 -855 0
-832 -856 0
-832 -857 0
-832 -858 0
-832 -859 0
-832 -860 0
-832 -861 0
-833 -834 0
-833 -835 0
-833 -836 0
-833 -837 0
-833 -838 0
-833 -839 0
-833 -840 0
-833 -841 0
-833 -842 0
-833 -843 0
-833 -844 0
-833 -845 0
-833 -846 0
-833 -847 0
-833 -848 0
-833 -849 0
-833 -850 0
-833 -851 0
-833 -852 0
-833 -853 0
-833 -854 0
-833 -855 0
-833 -856 0
-833 -857 0
-833 -858 0
-833 -859 0
-833 -860 0
-833 -861 0
-834 -835 0
-834 -836 0
-834 -837 0
-834 -838 0
-834 -839 0
-834 -840 0
-834 -841 0
-834 -842 0
-834 -843 0
-834 -844 0
-834 -845 0
-834 -846 0
-834 -847 0
-834 -848 0
-834 -849 0
-834 -850 0
-834 -851 0
-834 -852 0
-834 -853 0
-834 -854 0
-834 -855 0
-834 -856 0
-834 -857 0
-834 -858 0
-834 -859 0
-834 -860 0
-834 -861 0
-835 -836 0
-835 -837 0
-835 -838 0
-835 -839 0
-835 -840 0
-835 -841 0
-835 -842 0
-835 -843 0
-835 -844 0
-835 -845 0
-835 -846 0
-835 -847 0
-835 -848 0
-835 -849 0
-835 -850 0
-835 -851 0
-835 -852 0
-835 -853 0
-835 -854 0
-835 -855 0
-835 -856 0
-835 -857 0
-835 -858 0
-835 -859 0
-835 -860 0
-835 -861 0
-836 -837 0
-836 -838 0
-836 -839 0
-836 -840 0
-836 -841 0
-836 -842 0
-836 -843 0
-836 -844 0
-836 -845 0
-836 -846 0
-836 -847 0
-836 -848 0
-836 -849 0
-836 -850 0
-836 -851 0
-836 -852 0
-836 -853 0
-836 -854 0
-836 -855 0
-836 -856 0
-836 -857 0
-836 -858 0
-836 -859 0
-836 -860 0
-836 -861 0
-837 -838 0
-837 -839 0
-837 -840 0
-837 -841 0
-837 -842 0
-837 -843 0
-837 -844 0
-837 -845 0
-837 -846 0
-837 -847 0
-837 -848 0
-837 -849 0
-837 -850 0
-837 -851 0
-837 -852 0
-837 -853 0
-837 -854 0
-837 -855 0
-837 -856 0
-837 -857 0
-837 -858 0
-837 -859 0
-837 -860 0
-837 -861 0
-838 -839 0
-838 -840 0
-838 -841 0
-838 -842 0
-838 -843 0
-838 -844 0
-838 -845 0
-838 -846 0
-838 -847 0
-838 -848 0
-838 -849 0
-838 -850 0
-838 -851 0
-838 -852 0
-838 -853 0
-838 -854 0
-838 -855 0
-838 -856 0
-838 -857 0
-838 -858 0
-838 -859 0
-838 -860 0
-838 -861 0
-839 -840 0
-839 -841 0
-839 -842 0
-839 -843 0
-839 -844 0
-839 -845 0
-839 -846 0
-839 -847 0
-839 -848 0
-839 -849 0
-839 -850 0
-839 -851 0
-839 -852 0
-839 -853 0
-839 -854 0
-839 -855 0
-839 -856 0
-839 -857 0
-839 -858 0
-839 -859 0
-839 -860 0
-839 -861 0
-840 -841 0
-840 -842 0
-840 -843 0
-840 -844 0
-840 -845 0
-840 -846 0
-840 -847 0
-840 -848 0
-840 -849 0
-840 -850 0
-840 -851 0
-840 -852 0
-840 -853 0
-840 -854 0
-840 -855 0
-840 -856 0
-840 -857 0
-840 -858 0
-840 -859 0
-840 -860 0
-840 -861 0
-841 -842 0
-841 -843 0
-841 -844 0
-841 -845 0
-841 -846 0
-841 -847 0
-841 -848 0
-841 -849 0
-841 -850 0
-841 -851 0
-841 -852 0
-841 -853 0
-841 -854 0
-841 -855 0
-841 -856 0
-841 -857 0
-841 -858 0
-841 -859 0
-841 -860 0
-841 -861 0
-842 -843 0
-842 -844 0
-842 -845 0
-842 -846 0
-842 -847 0
-842 -848 0
-842 -849 0
-842 -850 0
-842 -851 0
-842 -852 0
-842 -853 0
-842 -854 0
-842 -855 0
-842 -856 0
-842 -857 0
-842 -858 0
-842 -859 0
-842 -860 0
-842 -861 0
-843 -844 0
-843 -845 0
-843 -846 0
-843 -847 0
-843 -848 0
-843 -849 0
-843 -850 0
-843 -851 0
-843 -852 0
-843 -853 0
-843 -854 0
-843 -855 0
-843 -856 0
-843 -857 0
-843 -858 0
-843 -859 0
-843 -860 0
-843 -861 0
-844 -845 0
-844 -846 0
-844 -847 0
-844 -848 0
-844 -849 0
-844 -850 0
-844 -851 0
-844 -852 0
-844 -853 0
-844 -854 0
-844 -855 0
-844 -856 0
-844 -857 0
-844 -858 0
-844 -859 0
-844 -860 0
-844 -861 0
-845 -846 0
-845 -847 0
-845 -848 0
-845 -849 0
-845 -850 0
-845 -851 0
-845 -852 0
-845 -853 0
-845 -854 0
-845 -855 0
-845 -856 0
-845 -857 0
-845 -858 0
-845 -859 0
-845 -860 0
-845 -861 0
-846 -847 0
-846 -848 0
-846 -849 0
-846 -850 0
-846 -851 0
-846 -852 0
-846 -853 0
-846 -854 0
-846 -855 0
-846 -856 0
-846 -857 0
-846 -858 0
-846 -859 0
-846 -860 0
-846 -861 0
-847 -848 0
-847 -849 0
-847 -850 0
-847 -851 0
-847 -852 0
-847 -853 0
-847 -854 0
-847 -855 0
-847 -856 0
-847 -857 0
-847 -858 0
-847 -859 0
-847 -860 0
-847 -861 0
-848 -849 0
-848 -850 0
-848 -851 0
-848 -852 0
-848 -853 0
-848 -854 0
-848 -855 0
-848 -856 0
-848 -857 0
-848 -858 0
-848 -859 0
-848 -860 0
-848 -861 0
-849 -850 0
-849 -851 0
-849 -852 0
-849 -853 0
-849 -854 0
-849 -855 0
-849 -856 0
-849 -857 0
-849 -858 0
-849 -859 0
-849 -860 0
-849 -861 0
-850 -851 0
-850 -852 0
-850 -853 0
-850 -854 0
-850 -855 0
-850 -856 0
-850 -857 0
-850 -858 0
-850 -859 0
-850 -860 0
-850 -861 0
-851 -852 0
-851 -853 0
-851 -854 0
-851 -855 0
-851 -856 0
-851 -857 0
-851 -858 0
-851 -859 0
-851 -860 0
-851 -861 0
-852 -853 0
-852 -854 0
-852 -855 0
-852 -856 0
-852 -857 0
-852 -858 0
-852 -859 0
-852 -860 0
-852 -861 0
-853 -854 0
-853 -855 0
-853 -856 0
-853 -857 0
-853 -858 0
-853 -859 0
-853 -860 0
-853 -861 0
-854 -855 0
-854 -856 0
-854 -857 0
-854 -858 0
-854 -859 0
-854 -860 0
-854 -861 0
-855 -856 0
-855 -857 0
-855 -858 0
-855 -859 0
-855 -860 0
-855 -861 0
-856 -857 0
-856 -858 0
-856 -859 0
-856 -860 0
-856 -861 0
-857 -858 0
-857 -859 0
-857 -860 0
-857 -861 0
-858 -859 0
-858 -860 0
-858 -861 0
-859 -860 0
-859 -861 0
-860 -861 0
-862 -863 0
-862 -864 0
-862 -865 0
-862 -866 0
-862 -867 0
-862 -868 0
-862 -869 0
-862 -870 0
-862 -871 0
-862 -872 0
-862 -873 0
-862 -874 0
-862 -875 0
-862 -876 0
-862 -877 0
-862 -878 0
-862 -879 0
-862 -880 0
-862 -881 0
-862 -882 0
-862 -883 0
-862 -884 0
-862 -885 0
-862 -886 0
-862 -887 0
-862 -888 0
-862 -889 0
-862 -890 0
-862 -891 0
-862 -892 0
-862 -893 0
-862 -894 0
-862 -895 0
-862 -896 0
-862 -897 0
-862 -898 0
-862 -899 0
-862 -900 0
-862 -901 0
-862 -902 0
-863 -864 0
-863 -865 0
-863 -866 0
-863 -867 0
-863 -868 0
-863 -869 0
-863 -870 0
-863 -871 0
-863 -872 0
-863 -873 0
-863 -874 0
-863 -875 0
-863 -876 0
-863 -877 0
-863 -878 0
-863 -879 0
-863 -880 0
-863 -881 0
-863 -882 0
-863 -883 0
-863 -884 0
-863 -885 0
-863 -886 0
-863 -887 0
-863 -888 0
-863 -889 0
-863 -890 0
-863 -891 0
-863 -892 0
-863 -893 0
-863 -894 0
-863 -895 0
-863 -896 0
-863 -897 0
-863 -898 0
-863 -899 0
-863 -900 0
-863 -901 0
-863 -902 0
-864 -865 0
-864 -866 0
-864 -867 0
-864 -868 0
-864 -869 0
-864 -870 0
-864 -871 0
-864 -872 0
-864 -873 0
-864 -874 0
-864 -875 0
-864 -876 0
-864 -877 0
-864 -878 0
-864 -879 0
-864 -880 0
-864 -881 0
-864 -882 0
-864 -883 0
-864 -884 0
-864 -885 0
-864 -886 0
-864 -887 0
-864 -888 0
-864 -889 0
-864 -890 0
-864 -891 0
-864 -892 0
-864 -893 0
-864 -894 0
-864 -895 0
-864 -896 0
-864 -897 0
-864 -898 0
-864 -899 0
-864 -900 0
-864 -901 0
-864 -902 0
-865 -866 0
-865 -867 0
-865 -868 0
-865 -869 0
-865 -870 0
-865 -871 0
-865 -872 0
-865 -873 0
-865 -874 0
-865 -875 0
-865 -876 0
-865 -877 0
-865 -878 0
-865 -879 0
-865 -880 0
-865 -881 0
-865 -882 0
-865 -883 0
-865 -884 0
-865 -885 0
-865 -886 0
-865 -887 0
-865 -888 0
-865 -889 0
-865 -890 0
-865 -891 0
-865 -892 0
-865 -893 0
-865 -894 0
-865 -895 0
-865 -896 0
-865 -897 0
-865 -898 0
-865 -899 0
-865 -900 0
-865 -901 0
-865 -902 0
-866 -867 0
-866 -868 0
-866 -869 0
-866 -870 0
-866 -871 0
-866 -872 0
-866 -873 0
-866 -874 0
-866 -875 0
-866 -876 0
-866 -877 0
-866 -878 0
-866 -879 0
-866 -880 0
-866 -881 0
-866 -882 0
-866 -883 0
-866 -884 0
-866 -885 0
-866 -886 0
-866 -887 0
-866 -888 0
-866 -889 0
-866 -890 0
-866 -891 0
-866 -892 0
-866 -893 0
-866 -894 0
-866 -895 0
-866 -896 0
-866 -897 0
-866 -898 0
-866 -899 0
-866 -900 0
-866 -901 0
-866 -902 0
-867 -868 0
-867 -869 0
-867 -870 0
-867 -871 0
-867 -872 0
-867 -873 0
-867 -874 0
-867 -875 0
-867 -876 0
-867 -877 0
-867 -878 0
-867 -879 0
-867 -880 0
-867 -881 0
-867 -882 0
-867 -883 0
-867 -884 0
-867 -885 0
-867 -886 0
-867 -887 0
-867 -888 0
-867 -889 0
-867 -890 0
-867 -891 0
-867 -892 0
-867 -893 0
-867 -894 0
-867 -895 0
-867 -896 0
-867 -897 0
-867 -898 0
-867 -899 0
-867 -900 0
-867 -901 0
-867 -902 0
-868 -869 0
-868 -870 0
-868 -871 0
-868 -872 0
-868 -873 0
-868 -874 0
-868 -875 0
-868 -876 0
-868 -877 0
-868 -878 0
-868 -879 0
-868 -880 0
-868 -881 0
-868 -882 0
-868 -883 0
-868 -884 0
-868 -885 0
-868 -886 0
-868 -887 0
-868 -888 0
-868 -889 0
-868 -890 0
-868 -891 0
-868 -892 0
-868 -893 0
-868 -894 0
-868 -895 0
-868 -896 0
-868 -897 0
-868 -898 0
-868 -899 0
-868 -900 0
-868 -901 0
-868 -902 0
-869 -870 0
-869 -871 0
-869 -872 0
-869 -873 0
-869 -874 0
-869 -875 0
-869 -876 0
-869 -877 0
-869 -878 0
-869 -879 0
-869 -880 0
-869 -881 0
-869 -882 0
-869 -883 0
-869 -884 0
-869 -885 0
-869 -886 0
-869 -887 0
-869 -888 0
-869 -889 0
-869 -890 0
-869 -891 0
-869 -892 0
-869 -893 0
-869 -894 0
-869 -895 0
-869 -896 0
-869 -897 0
-869 -898 0
-869 -899 0
-869 -900 0
-869 -901 0
-869 -902 0
-870 -871 0
-870 -872 0
-870 -873 0
-870 -874 0
-870 -875 0
-870 -876 0
-870 -877 0
-870 -878 0
-870 -879 0
-870 -880 0
-870 -881 0
-870 -882 0
-870 -883 0
-870 -884 0
-870 -885 0
-870 -886 0
-870 -887 0
-870 -888 0
-870 -889 0
-870 -890 0
-870 -891 0
-870 -892 0
-870 -893 0
-870 -894 0
-870 -895 0
-870 -896 0
-870 -897 0
-870 -898 0
-870 -899 0
-870 -900 0
-870 -901 0
-870 -902 0
-871 -872 0
-871 -873 0
-871 -874 0
-871 -875 0
-871 -876 0
-871 -877 0
-871 -878 0
-871 -879 0
-871 -880 0
-871 -881 0
-871 -882 0
-871 -883 0
-871 -884 0
-871 -885 0
-871 -886 0
-871 -887 0
-871 -888 0
-871 -889 0
-871 -890 0
-871 -891 0
-871 -892 0
-871 -893 0
-871 -894 0
-871 -895 0
-871 -896 0
-871 -897 0
-871 -898 0
-871 -899 0
-871 -900 0
-871 -901 0
-871 -902 0
-872 -873 0
-872 -874 0
-872 -875 0
-872 -876 0
-872 -877 0
-872 -878 0
-872 -879 0
-872 -880 0
-872 -881 0
-872 -882 0
-872 -883 0
-872 -884 0
-872 -885 0
-872 -886 0
-872 -887 0
-872 -888 0
-872 -889 0
-872 -890 0
-872 -891 0
-872 -892 0
-872 -893 0
-872 -894 0
-872 -895 0
-872 -896 0
-872 -897 0
-872 -898 0
-872 -899 0
-872 -900 0
-872 -901 0
-872 -902 0
-873 -874 0
-873 -875 0
-873 -876 0
-873 -877 0
-873 -878 0
-873 -879 0
-873 -880 0
-873 -881 0
-873 -882 0
-873 -883 0
-873 -884 0
-873 -885 0
-873 -886 0
-873 -887 0
-873 -888 0
-873 -889 0
-873 -890 0
-873 -891 0
-873 -892 0
-873 -893 0
-873 -894 0
-873 -895 0
-873 -896 0
-873 -897 0
-873 -898 0
-873 -899 0
-873 -900 0
-873 -901 0
-873 -902 0
-874 -875 0
-874 -876 0
-874 -877 0
-874 -878 0
-874 -879 0
-874 -880 0
-874 -881 0
-874 -882 0
-874 -883 0
-874 -884 0
-874 -885 0
-874 -886 0
-874 -887 0
-874 -888 0
-874 -889 0
-874 -890 0
-874 -891 0
-874 -892 0
-874 -893 0
-874 -894 0
-874 -895 0
-874 -896 0
-874 -897 0
-874 -898 0
-874 -899 0
-874 -900 0
-874 -901 0
-874 -902 0
-875 -876 0
-875 -877 0
-875 -878 0
-875 -879 0
-875 -880 0
-875 -881 0
-875 -882 0
-875 -883 0
-875 -884 0
-875 -885 0
-875 -886 0
-875 -887 0
-875 -888 0
-875 -889 0
-875 -890 0
-875 -891 0
-875 -892 0
-875 -893 0
-875 -894 0
-875 -895 0
-875 -896 0
-875 -897 0
-875 -898 0
-875 -899 0
-875 -900 0
-875 -901 0
-875 -902 0
-876 -877 0
-876 -878 0
-876 -879 0
-876 -880 0
-876 -881 0
-876 -882 0
-876 -883 0
-876 -884 0
-876 -885 0
-876 -886 0
-876 -887 0
-876 -888 0
-876 -889 0
-876 -890 0
-876 -891 0
-876 -892 0
-876 -893 0
-876 -894 0
-876 -895 0
-876 -896 0
-876 -897 0
-876 -898 0
-876 -899 0
-876 -900 0
-876 -901 0
-876 -902 0
-877 -878 0
-877 -879 0
-877 -880 0
-877 -881 0
-877 -882 0
-877 -883 0
-877 -884 0
-877 -885 0
-877 -886 0
-877 -887 0
-877 -888 0
-877 -889 0
-877 -890 0
-877 -891 0
-877 -892 0
-877 -893 0
-877 -894 0
-877 -895 0
-877 -896 0
-877 -897 0
-877 -898 0
-877 -899 0
-877 -900 0
-877 -901 0
-877 -902 0
-878 -879 0
-878 -880 0
-878 -881 0
-878 -882 0
-878 -883 0
-878 -884 0
-878 -885 0
-878 -886 0
-878 -887 0
-878 -888 0
-878 -889 0
-878 -890 0
-878 -891 0
-878 -892 0
-878 -893 0
-878 -894 0
-878 -895 0
-878 -896 0
-878 -897 0
-878 -898 0
-878 -899 0
-878 -900 0
-878 -901 0
-878 -902 0
-879 -880 0
-879 -881 0
-879 -882 0
-879 -883 0
-879 -884 0
-879 -885 0
-879 -886 0
-879 -887 0
-879 -888 0
-879 -889 0
-879 -890 0
-879 -891 0
-879 -892 0
-879 -893 0
-879 -894 0
-879 -895 0
-879 -896 0
-879 -897 0
-879 -898 0
-879 -899 0
-879 -900 0
-879 -901 0
-879 -902 0
-880 -881 0
-880 -882 0
-880 -883 0
-880 -884 0
-880 -885 0
-880 -886 0
-880 -887 0
-880 -888 0
-880 -889 0
-880 -890 0
-880 -891 0
-880 -892 0
-880 -893 0
-880 -894 0
-880 -895 0
-880 -896 0
-880 -897 0
-880 -898 0
-880 -899 0
-880 -900 0
-880 -901 0
-880 -902 0
-881 -882 0
-881 -883 0
-881 -884 0
-881 -885 0
-881 -886 0
-881 -887 0
-881 -888 0
-881 -889 0
-881 -890 0
-881 -891 0
-881 -892 0
-881 -893 0
-881 -894 0
-881 -895 0
-881 -896 0
-881 -897 0
-881 -898 0
-881 -899 0
-881 -900 0
-881 -901 0
-881 -902 0
-882 -883 0
-882 -884 0
-882 -885 0
-882 -886 0
-882 -887 0
-882 -888 0
-882 -889 0
-882 -890 0
-882 -891 0
-882 -892 0
-882 -893 0
-882 -894 0
-882 -895 0
-882 -896 0
-882 -897 0
-882 -898 0
-882 -899 0
-882 -900 0
-882 -901 0
-882 -902 0
-883 -884 0
-883 -885 0
-883 -886 0
-883 -887 0
-883 -888 0
-883 -889 0
-883 -890 0
-883 -891 0
-883 -892 0
-883 -893 0
-883 -894 0
-883 -895 0
-883 -896 0
-883 -897 0
-883 -898 0
-883 -899 0
-883 -900 0
-883 -901 0
-883 -902 0
-884 -885 0
-884 -886 0
-884 -887 0
-884 -888 0
-884 -889 0
-884 -890 0
-884 -891 0
-884 -892 0
-884 -893 0
-884 -894 0
-884 -895 0
-884 -896 0
-884 -897 0
-884 -898 0
-884 -899 0
-884 -900 0
-884 -901 0
-884 -902 0
-885 -886 0
-885 -887 0
-885 -888 0
-885 -889 0
-885 -890 0
-885 -891 0
-885 -892 0
-885 -893 0
-885 -894 0
-885 -895 0
-885 -896 0
-885 -897 0
-885 -898 0
-885 -899 0
-885 -900 0
-885 -901 0
-885 -902 0
-886 -887 0
-886 -888 0
-886 -889 0
-886 -890 0
-886 -891 0
-886 -892 0
-886 -893 0
-886 -894 0
-886 -895 0
-886 -896 0
-886 -897 0
-886 -898 0
-886 -899 0
-886 -900 0
-886 -901 0
-886 -902 0
-887 -888 0
-887 -889 0
-887 -890 0
-887 -891 0
-887 -892 0
-887 -893 0
-887 -894 0
-887 -895 0
-887 -896 0
-887 -897 0
-887 -898 0
-887 -899 0
-887 -900 0
-887 -901 0
-887 -902 0
-888 -889 0
-888 -890 0
-888 -891 0
-888 -892 0
-888 -893 0
-888 -894 0
-888 -895 0
-888 -896 0
-888 -897 0
-888 -898 0
-888 -899 0
-888 -900 0
-888 -901 0
-888 -902 0
-889 -890 0
-889 -891 0
-889 -892 0
-889 -893 0
-889 -894 0
-889 -895 0
-889 -896 0
-889 -897 0
-889 -898 0
-889 -899 0
-889 -900 0
-889 -901 0
-889 -902 0
-890 -891 0
-890 -892 0
-890 -893 0
-890 -894 0
-890 -895 0
-890 -896 0
-890 -897 0
-890 -898 0
-890 -899 0
-890 -900 0
-890 -901 0
-890 -902 0
-891 -892 0
-891 -893 0
-891 -894 0
-891 -895 0
-891 -896 0
-891 -897 0
-891 -898 0
-891 -899 0
-891 -900 0
-891 -901 0
-891 -902 0
-892 -893 0
-892 -894 0
-892 -895 0
-892 -896 0
-892 -897 0
-892 -898 0
-892 -899 0
-892 -900 0
-892 -901 0
-892 -902 0
-893 -894 0
-893 -895 0
-893 -896 0
-893 -897 0
-893 -898 0
-893 -899 0
-893 -900 0
-893 -901 0
-893 -902 0
-894 -895 0
-894 -896 0
-894 -897 0
-894 -898 0
-894 -899 0
-894 -900 0
-894 -901 0
-894 -902 0
-895 -896 0
-895 -897 0
-895 -898 0
-895 -899 0
-895 -900 0
-895 -901 0
-895 -902 0
-896 -897 0
-896 -898 0
-896 -899 0
-896 -900 0
-896 -901 0
-896 -902 0
-897 -898 0
-897 -899 0
-897 -900 0
-897 -901 0
-897 -902 0
-898 -899 0
-898 -900 0
-898 -901 0
-898 -902 0
-899 -900 0
-899 -901 0
-899 -902 0
-900 -901 0
-900 -902 0
-901 -902 0
-903 -904 0
-903 -905 0
-903 -906 0
-903 -907 0
-903 -908 0
-903 -909 0
-903 -910 0
-903 -911 0
-903 -912 0
-903 -913 0
-903 -914 0
-903 -915 0
-903 -916 0
-903 -917 0
-903 -918 0
-903 -919 0
-903 -920 0
-903 -921 0
-903 -922 0
-903 -923 0
-903 -924 0
-903 -925 0
-903 -926 0
-903 -927 0
-903 -928 0
-903 -929 0
-903 -930 0
-903 -931 0
-903 -932 0
-903 -933 0
-903 -934 0
-903 -935 0
-903 -936 0
-903 -937 0
-903 -938 0
-903 -939 0
-903 -940 0
-903 -941 0
-903 -942 0
-903 -943 0
-904 -905 0
-904 -906 0
-904 -907 0
-904 -908 0
-904 -909 0
-904 -910 0
-904 -911 0
-904 -912 0
-904 -913 0
-904 -914 0
-904 -915 0
-904 -916 0
-904 -917 0
-904 -918 0
-904 -919 0
-904 -920 0
-904 -921 0
-904 -922 0
-904 -923 0
-904 -924 0
-904 -925 0
-904 -926 0
-904 -927 0
-904 -928 0
-904 -929 0
-904 -930 0
-904 -931 0
-904 -932 0
-904 -933 0
-904 -934 0
-904 -935 0
-904 -936 0
-904 -937 0
-904 -938 0
-904 -939 0
-904 -940 0
-904 -941 0
-904 -942 0
-904 -943 0
-905 -906 0
-905 -907 0
-905 -908 0
-905 -909 0
-905 -910 0
-905 -911 0
-905 -912 0
-905 -913 0
-905 -914 0
-905 -915 0
-905 -916 0
-905 -917 0
-905 -918 0
-905 -919 0
-905 -920 0
-905 -921 0
-905 -922 0
-905 -923 0
-905 -924 0
-905 -925 0
-905 -926 0
-905 -927 0
-905 -928 0
-905 -929 0
-905 -930 0
-905 -931 0
-905 -932 0
-905 -933 0
-905 -934 0
-905 -935 0
-905 -936 0
-905 -937 0
-905 -938 0
-905 -939 0
-905 -940 0
-905 -941 0
-905 -942 0
-905 -943 0
-906 -907 0
-906 -908 0
-906 -909 0
-906 -910 0
-906 -911 0
-906 -912 0
-906 -913 0
-906 -914 0
-906 -915 0
-906 -916 0
-906 -917 0
-906 -918 0
-906 -919 0
-906 -920 0
-906 -921 0
-906 -922 0
-906 -923 0
-906 -924 0
-906 -925 0
-906 -926 0
-906 -927 0
-906 -928 0
-906 -929 0
-906 -930 0
-906 -931 0
-906 -932 0
-906 -933 0
-906 -934 0
-906 -935 0
-906 -936 0
-906 -937 0
-906 -938 0
-906 -939 0
-906 -940 0
-906 -941 0
-906 -942 0
-906 -943 0
-907 -908 0
-907 -909 0
-907 -910 0
-907 -911 0
-907 -912 0
-907 -913 0
-907 -914 0
-907 -915 0
-907 -916 0
-907 -917 0
-907 -918 0
-907 -919 0
-907 -920 0
-907 -921 0
-907 -922 0
-907 -923 0
-907 -924 0
-907 -925 0
-907 -926 0
-907 -927 0
-907 -928 0
-907 -929 0
-907 -930 0
-907 -931 0
-907 -932 0
-907 -933 0
-907 -934 0
-907 -935 0
-907 -936 0
-907 -937 0
-907 -938 0
-907 -939 0
-907 -940 0
-907 -941 0
-907 -942 0
-907 -943 0
-908 -909 0
-908 -910 0
-908 -911 0
-908 -912 0
-908 -913 0
-908 -914 0
-908 -915 0
-908 -916 0
-908 -917 0
-908 -918 0
-908 -919 0
-908 -920 0
-908 -921 0
-908 -922 0
-908 -923 0
-908 -924 0
-908 -925 0
-908 -926 0
-908 -927 0
-908 -928 0
-908 -929 0
-908 -930 0
-908 -931 0
-908 -932 0
-908 -933 0
-908 -934 0
-908 -935 0
-908 -936 0
-908 -937 0
-908 -938 0
-908 -939 0
-908 -940 0
-908 -941 0
-908 -942 0
-908 -943 0
-909 -910 0
-909 -911 0
-909 -912 0
-909 -913 0
-909 -914 0
-909 -915 0
-909 -916 0
-909 -917 0
-909 -918 0
-909 -919 0
-909 -920 0
-909 -921 0
-909 -922 0
-909 -923 0
-909 -924 0
-909 -925 0
-909 -926 0
-909 -927 0
-909 -928 0
-909 -929 0
-909 -930 0
-909 -931 0
-909 -932 0
-909 -933 0
-909 -934 0
-909 -935 0
-909 -936 0
-909 -937 0
-909 -938 0
-909 -939 0
-909 -940 0
-909 -941 0
-909 -942 0
-909 -943 0
-910 -911 0
-910 -912 0
-910 -913 0
-910 -914 0
-910 -915 0
-910 -916 0
-910 -917 0
-910 -918 0
-910 -919 0
-910 -920 0
-910 -921 0
-910 -922 0
-910 -923 0
-910 -924 0
-910 -925 0
-910 -926 0
-910 -927 0
-910 -928 0
-910 -929 0
-910 -930 0
-910 -931 0
-910 -932 0
-910 -933 0
-910 -934 0
-910 -935 0
-910 -936 0
-910 -937 0
-910 -938 0
-910 -939 0
-910 -940 0
-910 -941 0
-910 -942 0
-910 -943 0
-911 -912 0
-911 -913 0
-911 -914 0
-911 -915 0
-911 -916 0
-911 -917 0
-911 -918 0
-911 -919 0
-911 -920 0
-911 -921 0
-911 -922 0
-911 -923 0
-911 -924 0
-911 -925 0
-911 -926 0
-911 -927 0
-911 -928 0
-911 -929 0
-911 -930 0
-911 -931 0
-911 -932 0
-911 -933 0
-911 -934 0
-911 -935 0
-911 -936 0
-911 -937 0
-911 -938 0
-911 -939 0
-911 -940 0
-911 -941 0
-911 -942 0
-911 -943 0
-912 -913 0
-912 -914 0
-912 -915 0
-912 -916 0
-912 -917 0
-912 -918 0
-912 -919 0
-912 -920 0
-912 -921 0
-912 -922 0
-912 -923 0
-912 -924 0
-912 -925 0
-912 -926 0
-912 -927 0
-912 -928 0
-912 -929 0
-912 -930 0
-912 -931 0
-912 -932 0
-912 -933 0
-912 -934 0
-912 -935 0
-912 -936 0
-912 -937 0
-912 -938 0
-912 -939 0
-912 -940 0
-912 -941 0
-912 -942 0
-912 -943 0
-913 -914 0
-913 -915 0
-913 -916 0
-913 -917 0
-913 -918 0
-913 -919 0
-913 -920 0
-913 -921 0
-913 -922 0
-913 -923 0
-913 -924 0
-913 -925 0
-913 -926 0
-913 -927 0
-913 -928 0
-913 -929 0
-913 -930 0
-913 -931 0
-913 -932 0
-913 -933 0
-913 -934 0
-913 -935 0
-913 -936 0
-913 -937 0
-913 -938 0
-913 -939 0
-913 -940 0
-913 -941 0
-913 -942 0
-913 -943 0
-914 -915 0
-914 -916 0
-914 -917 0
-914 -918 0
-914 -919 0
-914 -920 0
-914 -921 0
-914 -922 0
-914 -923 0
-914 -924 0
-914 -925 0
-914 -926 0
-914 -927 0
-914 -928 0
-914 -929 0
-914 -930 0
-914 -931 0
-914 -932 0
-914 -933 0
-914 -934 0
-914 -935 0
-914 -936 0
-914 -937 0
-914 -938 0
-914 -939 0
-914 -940 0
-914 -941 0
-914 -942 0
-914 -943 0
-915 -916 0
-915 -917 0
-915 -918 0
-915 -919 0
-915 -920 0
-915 -921 0
-915 -922 0
-915 -923 0
-915 -924 0
-915 -925 0
-915 -926 0
-915 -927 0
-915 -928 0
-915 -929 0
-915 -930 0
-915 -931 0
-915 -932 0
-915 -933 0
-915 -934 0
-915 -935 0
-915 -936 0
-915 -937 0
-915 -938 0
-915 -939 0
-915 -940 0
-915 -941 0
-915 -942 0
-915 -943 0
-916 -917 0
-916 -918 0
-916 -919 0
-916 -920 0
-916 -921 0
-916 -922 0
-916 -923 0
-916 -924 0
-916 -925 0
-916 -926 0
-916 -927 0
-916 -928 0
-916 -929 0
-916 -930 0
-916 -931 0
-916 -932 0
-916 -933 0
-916 -934 0
-916 -935 0
-916 -936 0
-916 -937 0
-916 -938 0
-916 -939 0
-916 -940 0
-916 -941 0
-916 -942 0
-916 -943 0
-917 -918 0
-917 -919 0
-917 -920 0
-917 -921 0
-917 -922 0
-917 -923 0
-917 -924 0
-917 -925 0
-917 -926 0
-917 -927 0
-917 -928 0
-917 -929 0
-917 -930 0
-917 -931 0
-917 -932 0
-917 -933 0
-917 -934 0
-917 -935 0
-917 -936 0
-917 -937 0
-917 -938 0
-917 -939 0
-917 -940 0
-917 -941 0
-917 -942 0
-917 -943 0
-918 -919 0
-918 -920 0
-918 -921 0
-918 -922 0
-918 -923 0
-918 -924 0
-918 -925 0
-918 -926 0
-918 -927 0
-918 -928 0
-918 -929 0
-918 -930 0
-918 -931 0
-918 -932 0
-918 -933 0
-918 -934 0
-918 -935 0
-918 -936 0
-918 -937 0
-918 -938 0
-918 -939 0
-918 -940 0
-918 -941 0
-918 -942 0
-918 -943 0
-919 -920 0
-919 -921 0
-919 -922 0
-919 -923 0
-919 -924 0
-919 -925 0
-919 -926 0
-919 -927 0
-919 -928 0
-919 -929 0
-919 -930 0
-919 -931 0
-919 -932 0
-919 -933 0
-919 -934 0
-919 -935 0
-919 -936 0
-919 -937 0
-919 -938 0
-919 -939 0
-919 -940 0
-919 -941 0
-919 -942 0
-919 -943 0
-920 -921 0
-920 -922 0
-920 -923 0
-920 -924 0
-920 -925 0
-920 -926 0
-920 -927 0
-920 -928 0
-920 -929 0
-920 -930 0
-920 -931 0
-920 -932 0
-920 -933 0
-920 -934 0
-920 -935 0
-920 -936 0
-920 -937 0
-920 -938 0
-920 -939 0
-920 -940 0
-920 -941 0
-920 -942 0
-920 -943 0
-921 -922 0
-921 -923 0
-921 -924 0
-921 -925 0
-921 -926 0
-921 -927 0
-921 -928 0
-921 -929 0
-921 -930 0
-921 -931 0
-921 -932 0
-921 -933 0
-921 -934 0
-921 -935 0
-921 -936 0
-921 -937 0
-921 -938 0
-921 -939 0
-921 -940 0
-921 -941 0
-921 -942 0
-921 -943 0
-922 -923 0
-922 -924 0
-922 -925 0
-922 -926 0
-922 -927 0
-922 -928 0
-922 -929 0
-922 -930 0
-922 -931 0
-922 -932 0
-922 -933 0
-922 -934 0
-922 -935 0
-922 -936 0
-922 -937 0
-922 -938 0
-922 -939 0
-922 -940 0
-922 -941 0
-922 -942 0
-922 -943 0
-923 -924 0
-923 -925 0
-923 -926 0
-923 -927 0
-923 -928 0
-923 -929 0
-923 -930 0
-923 -931 0
-923 -932 0
-923 -933 0
-923 -934 0
-923 -935 0
-923 -936 0
-923 -937 0
-923 -938 0
-923 -939 0
-923 -940 0
-923 -941 0
-923 -942 0
-923 -943 0
-924 -925 0
-924 -926 0
-924 -927 0
-924 -928 0
-924 -929 0
-924 -930 0
-924 -931 0
-924 -932 0
-924 -933 0
-924 -934 0
-924 -935 0
-924 -936 0
-924 -937 0
-924 -938 0
-924 -939 0
-924 -940 0
-924 -941 0
-924 -942 0
-924 -943 0
-925 -926 0
-925 -927 0
-925 -928 0
-925 -929 0
-925 -930 0
-925 -931 0
-925 -932 0
-925 -933 0
-925 -934 0
-925 -935 0
-925 -936 0
-925 -937 0
-925 -938 0
-925 -939 0
-925 -940 0
-925 -941 0
-925 -942 0
-925 -943 0
-926 -927 0
-926 -928 0
-926 -929 0
-926 -930 0
-926 -931 0
-926 -932 0
-926 -933 0
-926 -934 0
-926 -935 0
-926 -936 0
-926 -937 0
-926 -938 0
-926 -939 0
-926 -940 0
-926 -941 0
-926 -942 0
-926 -943 0
-927 -928 0
-927 -929 0
-927 -930 0
-927 -931 0
-927 -932 0
-927 -933 0
-927 -934 0
-927 -935 0
-927 -936 0
-927 -937 0
-927 -938 0
-927 -939 0
-927 -940 0
-927 -941 0
-927 -942 0
-927 -943 0
-928 -929 0
-928 -930 0
-928 -931 0
-928 -932 0
-928 -933 0
-928 -934 0
-928 -935 0
-928 -936 0
-928 -937 0
-928 -938 0
-928 -939 0
-928 -940 0
-928 -941 0
-928 -942 0
-928 -943 0
-929 -930 0
-929 -931 0
-929 -932 0
-929 -933 0
-929 -934 0
-929 -935 0
-929 -936 0
-929 -937 0
-929 -938 0
-929 -939 0
-929 -940 0
-929 -941 0
-929 -942 0
-929 -943 0
-930 -931 0
-930 -932 0
-930 -933 0
-930 -934 0
-930 -935 0
-930 -936 0
-930 -937 0
-930 -938 0
-930 -939 0
-930 -940 0
-930 -941 0
-930 -942 0
-930 -943 0
-931 -932 0
-931 -933 0
-931 -934 0
-931 -935 0
-931 -936 0
-931 -937 0
-931 -938 0
-931 -939 0
-931 -940 0
-931 -941 0
-931 -942 0
-931 -943 0
-932 -933 0
-932 -934 0
-932 -935 0
-932 -936 0
-932 -937 0
-932 -938 0
-932 -939 0
-932 -940 0
-932 -941 0
-932 -942 0
-932 -943 0
-933 -934 0
-933 -935 0
-933 -936 0
-933 -937 0
-933 -938 0
-933 -939 0
-933 -940 0
-933 -941 0
-933 -942 0
-933 -943 0
-934 -935 0
-934 -936 0
-934 -937 0
-934 -938 0
-934 -939 0
-934 -940 0
-934 -941 0
-934 -942 0
-934 -943 0
-935 -936 0
-935 -937 0
-935 -938 0
-935 -939 0
-935 -940 0
-935 -941 0
-935 -942 0
-935 -943 0
-936 -937 0
-936 -938 0
-936 -939 0
-936 -940 0
-936 -941 0
-936 -942 0
-936 -943 0
-937 -938 0
-937 -939 0
-937 -940 0
-937 -941 0
-937 -942 0
-937 -943 0
-938 -939 0
-938 -940 0
-938 -941 0
-938 -942 0
-938 -943 0
-939 -940 0
-939 -941 0
-939 -942 0
-939 -943 0
-940 -941 0
-940 -942 0
-940 -943 0
-941 -942 0
-941 -943 0
-942 -943 0
-944 -945 0
-944 -946 0
-944 -947 0
-944 -948 0
-944 -949 0
-944 -950 0
-944 -951 0
-944 -952 0
-944 -953 0
-944 -954 0
-944 -955 0
-944 -956 0
-944 -957 0
-944 -958 0
-944 -959 0
-944 -960 0
-944 -961 0
-944 -962 0
-944 -963 0
-944 -964 0
-944 -965 0
-944 -966 0
-944 -967 0
-944 -968 0
-944 -969 0
-944 -970 0
-944 -971 0
-944 -972 0
-944 -973 0
-944 -974 0
-944 -975 0
-944 -976 0
-944 -977 0
-944 -978 0
-944 -979 0
-944 -980 0
-944 -981 0
-944 -982 0
-944 -983 0
-944 -984 0
-945 -946 0
-945 -947 0
-945 -948 0
-945 -949 0
-945 -950 0
-945 -951 0
-945 -952 0
-945 -953 0
-945 -954 0
-945 -955 0
-945 -956 0
-945 -957 0
-945 -958 0
-945 -959 0
-945 -960 0
-945 -961 0
-945 -962 0
-945 -963 0
-945 -964 0
-945 -965 0
-945 -966 0
-945 -967 0
-945 -968 0
-945 -969 0
-945 -970 0
-945 -971 0
-945 -972 0
-945 -973 0
-945 -974 0
-945 -975 0
-945 -976 0
-945 -977 0
-945 -978 0
-945 -979 0
-945 -980 0
-945 -981 0
-945 -982 0
-945 -983 0
-945 -984 0
-946 -947 0
-946 -948 0
-946 -949 0
-946 -950 0
-946 -951 0
-946 -952 0
-946 -953 0
-946 -954 0
-946 -955 0
-946 -956 0
-946 -957 0
-946 -958 0
-946 -959 0
-946 -960 0
-946 -961 0
-946 -962 0
-946 -963 0
-946 -964 0
-946 -965 0
-946 -966 0
-946 -967 0
-946 -968 0
-946 -969 0
-946 -970 0
-946 -971 0
-946 -972 0
-946 -973 0
-946 -974 0
-946 -975 0
-946 -976 0
-946 -977 0
-946 -978 0
-946 -979 0
-946 -980 0
-946 -981 0
-946 -982 0
-946 -983 0
-946 -984 0
-947 -948 0
-947 -949 0
-947 -950 0
-947 -951 0
-947 -952 0
-947 -953 0
-947 -954 0
-947 -955 0
-947 -956 0
-947 -957 0
-947 -958 0
-947 -959 0
-947 -960 0
-947 -961 0
-947 -962 0
-947 -963 0
-947 -964 0
-947 -965 0
-947 -966 0
-947 -967 0
-947 -968 0
-947 -969 0
-947 -970 0
-947 -971 0
-947 -972 0
-947 -973 0
-947 -974 0
-947 -975 0
-947 -976 0
-947 -977 0
-947 -978 0
-947 -979 0
-947 -980 0
-947 -981 0
-947 -982 0
-947 -983 0
-947 -984 0
-948 -949 0
-948 -950 0
-948 -951 0
-948 -952 0
-948 -953 0
-948 -954 0
-948 -955 0
-948 -956 0
-948 -957 0
-948 -958 0
-948 -959 0
-948 -960 0
-948 -961 0
-948 -962 0
-948 -963 0
-948 -964 0
-948 -965 0
-948 -966 0
-948 -967 0
-948 -968 0
-948 -969 0
-948 -970 0
-948 -971 0
-948 -972 0
-948 -973 0
-948 -974 0
-948 -975 0
-948 -976 0
-948 -977 0
-948 -978 0
-948 -979 0
-948 -980 0
-948 -981 0
-948 -982 0
-948 -983 0
-948 -984 0
-949 -950 0
-949 -951 0
-949 -952 0
-949 -953 0
-949 -954 0
-949 -955 0
-949 -956 0
-949 -957 0
-949 -958 0
-949 -959 0
-949 -960 0
-949 -961 0
-949 -962 0
-949 -963 0
-949 -964 0
-949 -965 0
-949 -966 0
-949 -967 0
-949 -968 0
-949 -969 0
-949 -970 0
-949 -971 0
-949 -972 0
-949 -973 0
-949 -974 0
-949 -975 0
-949 -976 0
-949 -977 0
-949 -978 0
-949 -979 0
-949 -980 0
-949 -981 0
-949 -982 0
-949 -983 0
-949 -984 0
-950 -951 0
-950 -952 0
-950 -953 0
-950 -954 0
-950 -955 0
-950 -956 0
-950 -957 0
-950 -958 0
-950 -959 0
-950 -960 0
-950 -961 0
-950 -962 0
-950 -963 0
-950 -964 0
-950 -965 0
-950 -966 0
-950 -967 0
-950 -968 0
-950 -969 0
-950 -970 0
-950 -971 0
-950 -972 0
-950 -973 0
-950 -974 0
-950 -975 0
-950 -976 0
-950 -977 0
-950 -978 0
-950 -979 0
-950 -980 0
-950 -981 0
-950 -982 0
-950 -983 0
-950 -984 0
-951 -952 0
-951 -953 0
-951 -954 0
-951 -955 0
-951 -956 0
-951 -957 0
-951 -958 0
-951 -959 0
-951 -960 0
-951 -961 0
-951 -962 0
-951 -963 0
-951 -964 0
-951 -965 0
-951 -966 0
-951 -967 0
-951 -968 0
-951 -969 0
-951 -970 0
-951 -971 0
-951 -972 0
-951 -973 0
-951 -974 0
-951 -975 0
-951 -976 0
-951 -977 0
-951 -978 0
-951 -979 0
-951 -980 0
-951 -981 0
-951 -982 0
-951 -983 0
-951 -984 0
-952 -953 0
-952 -954 0
-952 -955 0
-952 -956 0
-952 -957 0
-952 -958 0
-952 -959 0
-952 -960 0
-952 -961 0
-952 -962 0
-952 -963 0
-952 -964 0
-952 -965 0
-952 -966 0
-952 -967 0
-952 -968 0
-952 -969 0
-952 -970 0
-952 -971 0
-952 -972 0
-952 -973 0
-952 -974 0
-952 -975 0
-952 -976 0
-952 -977 0
-952 -978 0
-952 -979 0
-952 -980 0
-952 -981 0
-952 -982 0
-952 -983 0
-952 -984 0
-953 -954 0
-953 -955 0
-953 -956 0
-953 -957 0
-953 -958 0
-953 -959 0
-953 -960 0
-953 -961 0
-953 -962 0
-953 -963 0
-953 -964 0
-953 -965 0
-953 -966 0
-953 -967 0
-953 -968 0
-953 -969 0
-953 -970 0
-953 -971 0
-953 -972 0
-953 -973 0
-953 -974 0
-953 -975 0
-953 -976 0
-953 -977 0
-953 -978 0
-953 -979 0
-953 -980 0
-953 -981 0
-953 -982 0
-953 -983 0
-953 -984 0
-954 -955 0
-954 -956 0
-954 -957 0
-954 -958 0
-954 -959 0
-954 -960 0
-954 -961 0
-954 -962 0
-954 -963 0
-954 -964 0
-954 -965 0
-954 -966 0
-954 -967 0
-954 -968 0
-954 -969 0
-954 -970 0
-954 -971 0
-954 -972 0
-954 -973 0
-954 -974 0
-954 -975 0
-954 -976 0
-954 -977 0
-954 -978 0
-954 -979 0
-954 -980 0
-954 -981 0
-954 -982 0
-954 -983 0
-954 -984 0
-955 -956 0
-955 -957 0
-955 -958 0
-955 -959 0
-955 -960 0
-955 -961 0
-955 -962 0
-955 -963 0
-955 -964 0
-955 -965 0
-955 -966 0
-955 -967 0
-955 -968 0
-955 -969 0
-955 -970 0
-955 -971 0
-955 -972 0
-955 -973 0
-955 -974 0
-955 -975 0
-955 -976 0
-955 -977 0
-955 -978 0
-955 -979 0
-955 -980 0
-955 -981 0
-955 -982 0
-955 -983 0
-955 -984 0
-956 -957 0
-956 -958 0
-956 -959 0
-956 -960 0
-956 -961 0
-956 -962 0
-956 -963 0
-956 -964 0
-956 -965 0
-956 -966 0
-956 -967 0
-956 -968 0
-956 -969 0
-956 -970 0
-956 -971 0
-956 -972 0
-956 -973 0
-956 -974 0
-956 -975 0
-956 -976 0
-956 -977 0
-956 -978 0
-956 -979 0
-956 -980 0
-956 -981 0
-956 -982 0
-956 -983 0
-956 -984 0
-957 -958 0
-957 -959 0
-957 -960 0
-957 -961 0
-957 -962 0
-957 -963 0
-957 -964 0
-957 -965 0
-957 -966 0
-957 -967 0
-957 -968 0
-957 -969 0
-957 -970 0
-957 -971 0
-957 -972 0
-957 -973 0
-957 -974 0
-957 -975 0
-957 -976 0
-957 -977 0
-957 -978 0
-957 -979 0
-957 -980 0
-957 -981 0
-957 -982 0
-957 -983 0
-957 -984 0
-958 -959 0
-958 -960 0
-958 -961 0
-958 -962 0
-958 -963 0
-958 -964 0
-958 -965 0
-958 -966 0
-958 -967 0
-958 -968 0
-958 -969 0
-958 -970 0
-958 -971 0
-958 -972 0
-958 -973 0
-958 -974 0
-958 -975 0
-958 -976 0
-958 -977 0
-958 -978 0
-958 -979 0
-958 -980 0
-958 -981 0
-958 -982 0
-958 -983 0
-958 -984 0
-959 -960 0
-959 -961 0
-959 -962 0
-959 -963 0
-959 -964 0
-959 -965 0
-959 -966 0
-959 -967 0
-959 -968 0
-959 -969 0
-959 -970 0
-959 -971 0
-959 -972 0
-959 -973 0
-959 -974 0
-959 -975 0
-959 -976 0
-959 -977 0
-959 -978 0
-959 -979 0
-959 -980 0
-959 -981 0
-959 -982 0
-959 -983 0
-959 -984 0
-960 -961 0
-960 -962 0
-960 -963 0
-960 -964 0
-960 -965 0
-960 -966 0
-960 -967 0
-960 -968 0
-960 -969 0
-960 -970 0
-960 -971 0
-960 -972 0
-960 -973 0
-960 -974 0
-960 -975 0
-960 -976 0
-960 -977 0
-960 -978 0
-960 -979 0
-960 -980 0
-960 -981 0
-960 -982 0
-960 -983 0
-960 -984 0
-961 -962 0
-961 -963 0
-961 -964 0
-961 -965 0
-961 -966 0
-961 -967 0
-961 -968 0
-961 -969 0
-961 -970 0
-961 -971 0
-961 -972 0
-961 -973 0
-961 -974 0
-961 -975 0
-961 -976 0
-961 -977 0
-961 -978 0
-961 -979 0
-961 -980 0
-961 -981 0
-961 -982 0
-961 -983 0
-961 -984 0
-962 -963 0
-962 -964 0
-962 -965 0
-962 -966 0
-962 -967 0
-962 -968 0
-962 -969 0
-962 -970 0
-962 -971 0
-962 -972 0
-962 -973 0
-962 -974 0
-962 -975 0
-962 -976 0
-962 -977 0
-962 -978 0
-962 -979 0
-962 -980 0
-962 -981 0
-962 -982 0
-962 -983 0
-962 -984 0
-963 -964 0
-963 -965 0
-963 -966 0
-963 -967 0
-963 -968 0
-963 -969 0
-963 -970 0
-963 -971 0
-963 -972 0
-963 -973 0
-963 -974 0
-963 -975 0
-963 -976 0
-963 -977 0
-963 -978 0
-963 -979 0
-963 -980 0
-963 -981 0
-963 -982 0
-963 -983 0
-963 -984 0
-964 -965 0
-964 -966 0
-964 -967 0
-964 -968 0
-964 -969 0
-964 -970 0
-964 -971 0
-964 -972 0
-964 -973 0
-964 -974 0
-964 -975 0
-964 -976 0
-964 -977 0
-964 -978 0
-964 -979 0
-964 -980 0
-964 -981 0
-964 -982 0
-964 -983 0
-964 -984 0
-965 -966 0
-965 -967 0
-965 -968 0
-965 -969 0
-965 -970 0
-965 -971 0
-965 -972 0
-965 -973 0
-965 -974 0
-965 -975 0
-965 -976 0
-965 -977 0
-965 -978 0
-965 -979 0
-965 -980 0
-965 -981 0
-965 -982 0
-965 -983 0
-965 -984 0
-966 -967 0
-966 -968 0
-966 -969 0
-966 -970 0
-966 -971 0
-966 -972 0
-966 -973 0
-966 -974 0
-966 -975 0
-966 -976 0
-966 -977 0
-966 -978 0
-966 -979 0
-966 -980 0
-966 -981 0
-966 -982 0
-966 -983 0
-966 -984 0
-967 -968 0
-967 -969 0
-967 -970 0
-967 -971 0
-967 -972 0
-967 -973 0
-967 -974 0
-967 -975 0
-967 -976 0
-967 -977 0
-967 -978 0
-967 -979 0
-967 -980 0
-967 -981 0
-967 -982 0
-967 -983 0
-967 -984 0
-968 -969 0
-968 -970 0
-968 -971 0
-968 -972 0
-968 -973 0
-968 -974 0
-968 -975 0
-968 -976 0
-968 -977 0
-968 -978 0
-968 -979 0
-968 -980 0
-968 -981 0
-968 -982 0
-968 -983 0
-968 -984 0
-969 -970 0
-969 -971 0
-969 -972 0
-969 -973 0
-969 -974 0
-969 -975 0
-969 -976 0
-969 -977 0
-969 -978 0
-969 -979 0
-969 -980 0
-969 -981 0
-969 -982 0
-969 -983 0
-969 -984 0
-970 -971 0
-970 -972 0
-970 -973 0
-970 -974 0
-970 -975 0
-970 -976 0
-970 -977 0
-970 -978 0
-970 -979 0
-970 -980 0
-970 -981 0
-970 -982 0
-970 -983 0
-970 -984 0
-971 -972 0
-971 -973 0
-971 -974 0
-971 -975 0
-971 -976 0
-971 -977 0
-971 -978 0
-971 -979 0
-971 -980 0
-971 -981 0
-971 -982 0
-971 -983 0
-971 -984 0
-972 -973 0
-972 -974 0
-972 -975 0
-972 -976 0
-972 -977 0
-972 -978 0
-972 -979 0
-972 -980 0
-972 -981 0
-972 -982 0
-972 -983 0
-972 -984 0
-973 -974 0
-973 -975 0
-973 -976 0
-973 -977 0
-973 -978 0
-973 -979 0
-973 -980 0
-973 -981 0
-973 -982 0
-973 -983 0
-973 -984 0
-974 -975 0
-974 -976 0
-974 -977 0
-974 -978 0
-974 -979 0
-974 -980 0
-974 -981 0
-974 -982 0
-974 -983 0
-974 -984 0
-975 -976 0
-975 -977 0
-975 -978 0
-975 -979 0
-975 -980 0
-975 -981 0
-975 -982 0
-975 -983 0
-975 -984 0
-976 -977 0
-976 -978 0
-976 -979 0
-976 -980 0
-976 -981 0
-976 -982 0
-976 -983 0
-976 -984 0
-977 -978 0
-977 -979 0
-977 -980 0
-977 -981 0
-977 -982 0
-977 -983 0
-977 -984 0
-978 -979 0
-978 -980 0
-978 -981 0
-978 -982 0
-978 -983 0
-978 -984 0
-979 -980 0
-979 -981 0
-979 -982 0
-979 -983 0
-979 -984 0
-980 -981 0
-980 -982 0
-980 -983 0
-980 -984 0
-981 -982 0
-981 -983 0
-981 -984 0
-982 -983 0
-982 -984 0
-983 -984 0
-985 -986 0
-985 -987 0
-985 -988 0
-985 -989 0
-985 -990 0
-985 -991 0
-985 -992 0
-985 -993 0
-985 -994 0
-985 -995 0
-985 -996 0
-985 -997 0
-985 -998 0
-985 -999 0
-985 -1000 0
-985 -1001 0
-985 -1002 0
-985 -1003 0
-985 -1004 0
-985 -1005 0
-985 -1006 0
-985 -1007 0
-985 -1008 0
-985 -1009 0
-985 -1010 0
-985 -1011 0
-985 -1012 0
-985 -1013 0
-985 -1014 0
-985 -1015 0
-985 -1016 0
-985 -1017 0
-985 -1018 0
-985 -1019 0
-985 -1020 0
-985 -1021 0
-985 -1022 0
-985 -1023 0
-985 -1024 0
-985 -1025 0
-986 -987 0
-986 -988 0
-986 -989 0
-986 -990 0
-986 -991 0
-986 -992 0
-986 -993 0
-986 -994 0
-986 -995 0
-986 -996 0
-986 -997 0
-986 -998 0
-986 -999 0
-986 -1000 0
-986 -1001 0
-986 -1002 0
-986 -1003 0
-986 -1004 0
-986 -1005 0
-986 -1006 0
-986 -1007 0
-986 -1008 0
-986 -1009 0
-986 -1010 0
-986 -1011 0
-986 -1012 0
-986 -1013 0
-986 -1014 0
-986 -1015 0
-986 -1016 0
-986 -1017 0
-986 -1018 0
-986 -1019 0
-986 -1020 0
-986 -1021 0
-986 -1022 0
-986 -1023 0
-986 -1024 0
-986 -1025 0
-987 -988 0
-987 -989 0
-987 -990 0
-987 -991 0
-987 -992 0
-987 -993 0
-987 -994 0
-987 -995 0
-987 -996 0
-987 -997 0
-987 -998 0
-987 -999 0
-987 -1000 0
-987 -1001 0
-987 -1002 0
-987 -1003 0
-987 -1004 0
-987 -1005 0
-987 -1006 0
-987 -1007 0
-987 -1008 0
-987 -1009 0
-987 -1010 0
-987 -1011 0
-987 -1012 0
-987 -1013 0
-987 -1014 0
-987 -1015 0
-987 -1016 0
-987 -1017 0
-987 -1018 0
-987 -1019 0
-987 -1020 0
-987 -1021 0
-987 -1022 0
-987 -1023 0
-987 -1024 0
-987 -1025 0
-988 -989 0
-988 -990 0
-988 -991 0
-988 -992 0
-988 -993 0
-988 -994 0
-988 -995 0
-988 -996 0
-988 -997 0
-988 -998 0
-988 -999 0
-988 -1000 0
-988 -1001 0
-988 -1002 0
-988 -1003 0
-988 -1004 0
-988 -1005 0
-988 -1006 0
-988 -1007 0
-988 -1008 0
-988 -1009 0
-988 -1010 0
-988 -1011 0
-988 -1012 0
-988 -1013 0
-988 -1014 0
-988 -1015 0
-988 -1016 0
-988 -1017 0
-988 -1018 0
-988 -1019 0
-988 -1020 0
-988 -1021 0
-988 -1022 0
-988 -1023 0
-988 -1024 0
-988 -1025 0
-989 -990 0
-989 -991 0
-989 -992 0
-989 -993 0
-989 -994 0
-989 -995 0
-989 -996 0
-989 -997 0
-989 -998 0
-989 -999 0
-989 -1000 0
-989 -1001 0
-989 -1002 0
-989 -1003 0
-989 -1004 0
-989 -1005 0
-989 -1006 0
-989 -1007 0
-989 -1008 0
-989 -1009 0
-989 -1010 0
-989 -1011 0
-989 -1012 0
-989 -1013 0
-989 -1014 0
-989 -1015 0
-989 -1016 0
-989 -1017 0
-989 -1018 0
-989 -1019 0
-989 -1020 0
-989 -1021 0
-989 -1022 0
-989 -1023 0
-989 -1024 0
-989 -1025 0
-990 -991 0
-990 -992 0
-990 -993 0
-990 -994 0
-990 -995 0
-990 -996 0
-990 -997 0
-990 -998 0
-990 -999 0
-990 -1000 0
-990 -1001 0
-990 -1002 0
-990 -1003 0
-990 -1004 0
-990 -1005 0
-990 -1006 0
-990 -1007 0
-990 -1008 0
-990 -1009 0
-990 -1010 0
-990 -1011 0
-990 -1012 0
-990 -1013 0
-990 -1014 0
-990 -1015 0
-990 -1016 0
-990 -1017 0
-990 -1018 0
-990 -1019 0
-990 -1020 0
-990 -1021 0
-990 -1022 0
-990 -1023 0
-990 -1024 0
-990 -1025 0
-991 -992 0
-991 -993 0
-991 -994 0
-991 -995 0
-991 -996 0
-991 -997 0
-991 -998 0
-991 -999 0
-991 -1000 0
-991 -1001 0
-991 -1002 0
-991 -1003 0
-991 -1004 0
-991 -1005 0
-991 -1006 0
-991 -1007 0
-991 -1008 0
-991 -1009 0
-991 -1010 0
-991 -1011 0
-991 -1012 0
-991 -1013 0
-991 -1014 0
-991 -1015 0
-991 -1016 0
-991 -1017 0
-991 -1018 0
-991 -1019 0
-991 -1020 0
-991 -1021 0
-991 -1022 0
-991 -1023 0
-991 -1024 0
-991 -1025 0
-992 -993 0
-992 -994 0
-992 -995 0
-992 -996 0
-992 -997 0
-992 -998 0
-992 -999 0
-992 -1000 0
-992 -1001 0
-992 -1002 0
-992 -1003 0
-992 -1004 0
-992 -1005 0
-992 -1006 0
-992 -1007 0
-992 -1008 0
-992 -1009 0
-992 -1010 0
-992 -1011 0
-992 -1012 0
-992 -1013 0
-992 -1014 0
-992 -1015 0
-992 -1016 0
-992 -1017 0
-992 -1018 0
-992 -1019 0
-992 -1020 0
-992 -1021 0
-992 -1022 0
-992 -1023 0
-992 -1024 0
-992 -1025 0
-993 -994 0
-993 -995 0
-993 -996 0
-993 -997 0
-993 -998 0
-993 -999 0
-993 -1000 0
-993 -1001 0
-993 -1002 0
-993 -1003 0
-993 -1004 0
-993 -1005 0
-993 -1006 0
-993 -1007 0
-993 -1008 0
-993 -1009 0
-993 -1010 0
-993 -1011 0
-993 -1012 0
-993 -1013 0
-993 -1014 0
-993 -1015 0
-993 -1016 0
-993 -1017 0
-993 -1018 0
-993 -1019 0
-993 -1020 0
-993 -1021 0
-993 -1022 0
-993 -1023 0
-993 -1024 0
-993 -1025 0
-994 -995 0
-994 -996 0
-994 -997 0
-994 -998 0
-994 -999 0
-994 -1000 0
-994 -1001 0
-994 -1002 0
-994 -1003 0
-994 -1004 0
-994 -1005 0
-994 -1006 0
-994 -1007 0
-994 -1008 0
-994 -1009 0
-994 -1010 0
-994 -1011 0
-994 -1012 0
-994 -1013 0
-994 -1014 0
-994 -1015 0
-994 -1016 0
-994 -1017 0
-994 -1018 0
-994 -1019 0
-994 -1020 0
-994 -1021 0
-994 -1022 0
-994 -1023 0
-994 -1024 0
-994 -1025 0
-995 -996 0
-995 -997 0
-995 -998 0
-995 -999 0
-995 -1000 0
-995 -1001 0
-995 -1002 0
-995 -1003 0
-995 -1004 0
-995 -1005 0
-995 -1006 0
-995 -1007 0
-995 -1008 0
-995 -1009 0
-995 -1010 0
-995 -1011 0
-995 -1012 0
-995 -1013 0
-995 -1014 0
-995 -1015 0
-995 -1016 0
-995 -1017 0
-995 -1018 0
-995 -1019 0
-995 -1020 0
-995 -1021 0
-995 -1022 0
-995 -1023 0
-995 -1024 0
-995 -1025 0
-996 -997 0
-996 -998 0
-996 -999 0
-996 -1000 0
-996 -1001 0
-996 -1002 0
-996 -1003 0
-996 -1004 0
-996 -1005 0
-996 -1006 0
-996 -1007 0
-996 -1008 0
-996 -1009 0
-996 -1010 0
-996 -1011 0
-996 -1012 0
-996 -1013 0
-996 -1014 0
-996 -1015 0
-996 -1016 0
-996 -1017 0
-996 -1018 0
-996 -1019 0
-996 -1020 0
-996 -1021 0
-996 -1022 0
-996 -1023 0
-996 -1024 0
-996 -1025 0
-997 -998 0
-997 -999 0
-997 -1000 0
-997 -1001 0
-997 -1002 0
-997 -1003 0
-997 -1004 0
-997 -1005 0
-997 -1006 0
-997 -1007 0
-997 -1008 0
-997 -1009 0
-997 -1010 0
-997 -1011 0
-997 -1012 0
-997 -1013 0
-997 -1014 0
-997 -1015 0
-997 -1016 0
-997 -1017 0
-997 -1018 0
-997 -1019 0
-997 -1020 0
-997 -1021 0
-997 -1022 0
-997 -1023 0
-997 -1024 0
-997 -1025 0
-998 -999 0
-998 -1000 0
-998 -1001 0
-998 -1002 0
-998 -1003 0
-998 -1004 0
-998 -1005 0
-998 -1006 0
-998 -1007 0
-998 -1008 0
-998 -1009 0
-998 -1010 0
-998 -1011 0
-998 -1012 0
-998 -1013 0
-998 -1014 0
-998 -1015 0
-998 -1016 0
-998 -1017 0
-998 -1018 0
-998 -1019 0
-998 -1020 0
-998 -1021 0
-998 -1022 0
-998 -1023 0
-998 -1024 0
-998 -1025 0
-999 -1000 0
-999 -1001 0
-999 -1002 0
-999 -1003 0
-999 -1004 0
-999 -1005 0
-999 -1006 0
-999 -1007 0
-999 -1008 0
-999 -1009 0
-999 -1010 0
-999 -1011 0
-999 -1012 0
-999 -1013 0
-999 -1014 0
-999 -1015 0
-999 -1016 0
-999 -1017 0
-999 -1018 0
-999 -1019 0
-999 -1020 0
-999 -1021 0
-999 -1022 0
-999 -1023 0
-999 -1024 0
-999 -1025 0
-1000 -1001 0
-1000 -1002 0
-1000 -1003 0
-1000 -1004 0
-1000 -1005 0
-1000 -1006 0
-1000 -1007 0
-1000 -1008 0
-1000 -1009 0
-1000 -1010 0
-1000 -1011 0
-1000 -1012 0
-1000 -1013 0
-1000 -1014 0
-1000 -1015 0
-1000 -1016 0
-1000 -1017 0
-1000 -1018 0
-1000 -1019 0
-1000 -1020 0
-1000 -1021 0
-1000 -1022 0
-1000 -1023 0
-1000 -1024 0
-1000 -1025 0
-1001 -1002 0
-1001 -1003 0
-1001 -1004 0
-1001 -1005 0
-1001 -1006 0
-1001 -1007 0
-1001 -1008 0
-1001 -1009 0
-1001 -1010 0
-1001 -1011 0
-1001 -1012 0
-1001 -1013 0
-1001 -1014 0
-1001 -1015 0
-1001 -1016 0
-1001 -1017 0
-1001 -1018 0
-1001 -1019 0
-1001 -1020 0
-1001 -1021 0
-1001 -1022 0
-1001 -1023 0
-1001 -1024 0
-1001 -1025 0
-1002 -1003 0
-1002 -1004 0
-1002 -1005 0
-1002 -1006 0
-1002 -1007 0
-1002 -1008 0
-1002 -1009 0
-1002 -1010 0
-1002 -1011 0
-1002 -1012 0
-1002 -1013 0
-1002 -1014 0
-1002 -1015 0
-1002 -1016 0
-1002 -1017 0
-1002 -1018 0
-1002 -1019 0
-1002 -1020 0
-1002 -1021 0
-1002 -1022 0
-1002 -1023 0
-1002 -1024 0
-1002 -1025 0
-1003 -1004 0
-1003 -1005 0
-1003 -1006 0
-1003 -1007 0
-1003 -1008 0
-1003 -1009 0
-1003 -1010 0
-1003 -1011 0
-1003 -1012 0
-1003 -1013 0
-1003 -1014 0
-1003 -1015 0
-1003 -1016 0
-1003 -1017 0
-1003 -1018 0
-1003 -1019 0
-1003 -1020 0
-1003 -1021 0
-1003 -1022 0
-1003 -1023 0
-1003 -1024 0
-1003 -1025 0
-1004 -1005 0
-1004 -1006 0
-1004 -1007 0
-1004 -1008 0
-1004 -1009 0
-1004 -1010 0
-1004 -1011 0
-1004 -1012 0
-1004 -1013 0
-1004 -1014 0
-1004 -1015 0
-1004 -1016 0
-1004 -1017 0
-1004 -1018 0
-1004 -1019 0
-1004 -1020 0
-1004 -1021 0
-1004 -1022 0
-1004 -1023 0
-1004 -1024 0
-1004 -1025 0
-1005 -1006 0
-1005 -1007 0
-1005 -1008 0
-1005 -1009 0
-1005 -1010 0
-1005 -1011 0
-1005 -1012 0
-1005 -1013 0
-1005 -1014 0
-1005 -1015 0
-1005 -1016 0
-1005 -1017 0
-1005 -1018 0
-1005 -1019 0
-1005 -1020 0
-1005 -1021 0
-1005 -1022 0
-1005 -1023 0
-1005 -1024 0
-1005 -1025 0
-1006 -1007 0
-1006 -1008 0
-1006 -1009 0
-1006 -1010 0
-1006 -1011 0
-1006 -1012 0
-1006 -1013 0
-1006 -1014 0
-1006 -1015 0
-1006 -1016 0
-1006 -1017 0
-1006 -1018 0
-1006 -1019 0
-1006 -1020 0
-1006 -1021 0
-1006 -1022 0
-1006 -1023 0
-1006 -1024 0
-1006 -1025 0
-1007 -1008 0
-1007 -1009 0
-1007 -1010 0
-1007 -1011 0
-1007 -1012 0
-1007 -1013 0
-1007 -1014 0
-1007 -1015 0
-1007 -1016 0
-1007 -1017 0
-1007 -1018 0
-1007 -1019 0
-1007 -1020 0
-1007 -1021 0
-1007 -1022 0
-1007 -1023 0
-1007 -1024 0
-1007 -1025 0
-1008 -1009 0
-1008 -1010 0
-1008 -1011 0
-1008 -1012 0
-1008 -1013 0
-1008 -1014 0
-1008 -1015 0
-1008 -1016 0
-1008 -1017 0
-1008 -1018 0
-1008 -1019 0
-1008 -1020 0
-1008 -1021 0
-1008 -1022 0
-1008 -1023 0
-1008 -1024 0
-1008 -1025 0
-1009 -1010 0
-1009 -1011 0
-1009 -1012 0
-1009 -1013 0
-1009 -1014 0
-1009 -1015 0
-1009 -1016 0
-1009 -1017 0
-1009 -1018 0
-1009 -1019 0
-1009 -1020 0
-1009 -1021 0
-1009 -1022 0
-1009 -1023 0
-1009 -1024 0
-1009 -1025 0
-1010 -1011 0
-1010 -1012 0
-1010 -1013 0
-1010 -1014 0
-1010 -1015 0
-1010 -1016 0
-1010 -1017 0
-1010 -1018 0
-1010 -1019 0
-1010 -1020 0
-1010 -1021 0
-1010 -1022 0
-1010 -1023 0
-1010 -1024 0
-1010 -1025 0
-1011 -1012 0
-1011 -1013 0
-1011 -1014 0
-1011 -1015 0
-1011 -1016 0
-1011 -1017 0
-1011 -1018 0
-1011 -1019 0
-1011 -1020 0
-1011 -1021 0
-1011 -1022 0
-1011 -1023 0
-1011 -1024 0
-1011 -1025 0
-1012 -1013 0
-1012 -1014 0
-1012 -1015 0
-1012 -1016 0
-1012 -1017 0
-1012 -1018 0
-1012 -1019 0
-1012 -1020 0
-1012 -1021 0
-1012 -1022 0
-1012 -1023 0
-1012 -1024 0
-1012 -1025 0
-1013 -1014 0
-1013 -1015 0
-1013 -1016 0
-1013 -1017 0
-1013 -1018 0
-1013 -1019 0
-1013 -1020 0
-1013 -1021 0
-1013 -1022 0
-1013 -1023 0
-1013 -1024 0
-1013 -1025 0
-1014 -1015 0
-1014 -1016 0
-1014 -1017 0
-1014 -1018 0
-1014 -1019 0
-1014 -1020 0
-1014 -1021 0
-1014 -1022 0
-1014 -1023 0
-1014 -1024 0
-1014 -1025 0
-1015 -1016 0
-1015 -1017 0
-1015 -1018 0
-1015 -1019 0
-1015 -1020 0
-1015 -1021 0
-1015 -1022 0
-1015 -1023 0
-1015 -1024 0
-1015 -1025 0
-1016 -1017 0
-1016 -1018 0
-1016 -1019 0
-1016 -1020 0
-1016 -1021 0
-1016 -1022 0
-1016 -1023 0
-1016 -1024 0
-1016 -1025 0
-1017 -1018 0
-1017 -1019 0
-1017 -1020 0
-1017 -1021 0
-1017 -1022 0
-1017 -1023 0
-1017 -1024 0
-1017 -1025 0
-1018 -1019 0
-1018 -1020 0
-1018 -1021 0
-1018 -1022 0
-1018 -1023 0
-1018 -1024 0
-1018 -1025 0
-1019 -1020 0
-1019 -1021 0
-1019 -1022 0
-1019 -1023 0
-1019 -1024 0
-1019 -1025 0
-1020 -1021 0
-1020 -1022 0
-1020 -1023 0
-1020 -1024 0
-1020 -1025 0
-1021 -1022 0
-1021 -1023 0
-1021 -1024 0
-1021 -1025 0
-1022 -1023 0
-1022 -1024 0
-1022 -1025 0
-1023 -1024 0
-1023 -1025 0
-1024 -1025 0
-821 -862 0
-821 -903 0
-821 -944 0
-821 -985 0
-862 -903 0
-862 -944 0
-862 -985 0
-903 -944 0
-903 -985 0
-944 -985 0
-822 -863 0
-822 -904 0
-822 -945 0
-822 -986 0
-863 -904 0
-863 -945 0
-863 -986 0
-904 -945 0
-904 -986 0
-945 -986 0
-823 -864 0
-823 -905 0
-823 -946 0
-823 -987 0
-864 -905 0
-864 -946 0
-864 -987 0
-905 -946 0
-905 -987 0
-946 -987 0
-824 -865 0
-824 -906 0
-824 -947 0
-824 -988 0
-865 -906 0
-865 -947 0
-865 -988 0
-906 -947 0
-906 -988 0
-947 -988 0
-825 -866 0
-825 -907 0
-825 -948 0
-825 -989 0
-866 -907 0
-866 -948 0
-866 -989 0
-907 -948 0
-907 -989 0
-948 -989 0
-826 -867 0
-826 -908 0
-826 -949 0
-826 -990 0
-867 -908 0
-867 -949 0
-867 -990 0
-908 -949 0
-908 -990 0
-949 -990 0
-827 -868 0
-827 -909 0
-827 -950 0
-827 -991 0
-868 -909 0
-868 -950 0
-868 -991 0
-909 -950 0
-909 -991 0
-950 -991 0
-828 -869 0
-828 -910 0
-828 -951 0
-828 -992 0
-869 -910 0
-869 -951 0
-869 -992 0
-910 -951 0
-910 -992 0
-951 -992 0
-829 -870 0
-829 -911 0
-829 -952 0
-829 -993 0
-870 -911 0
-870 -952 0
-870 -993 0
-911 -952 0
-911 -993 0
-952 -993 0
-830 -871 0
-830 -912 0
-830 -953 0
-830 -994 0
-871 -912 0
-871 -953 0
-871 -994 0
-912 -953 0
-912 -994 0
-953 -994 0
-831 -872 0
-831 -913 0
-831 -954 0
-831 -995 0
-872 -913 0
-872 -954 0
-872 -995 0
-913 -954 0
-913 -995 0
-954 -995 0
-832 -873 0
-832 -914 0
-832 -955 0
-832 -996 0
-873 -914 0
-873 -955 0
-873 -996 0
-914 -955 0
-914 -996 0
-955 -996 0
-833 -874 0
-833 -915 0
-833 -956 0
-833 -997 0
-874 -915 0
-874 -956 0
-874 -997 0
-915 -956 0
-915 -997 0
-956 -997 0
-834 -875 0
-834 -916 0
-834 -957 0
-834 -998 0
-875 -916 0
-875 -957 0
-875 -998 0
-916 -957 0
-916 -998 0
-957 -998 0
-835 -876 0
-835 -917 0
-835 -958 0
-835 -999 0
-876 -917 0
-876 -958 0
-876 -999 0
-917 -958 0
-917 -999 0
-958 -999 0
-836 -877 0
-836 -918 0
-836 -959 0
-836 -1000 0
-877 -918 0
-877 -959 0
-877 -1000 0
-918 -959 0
-918 -1000 0
-959 -1000 0
-837 -878 0
-837 -919 0
-837 -960 0
-837 -1001 0
-878 -919 0
-878 -960 0
-878 -1001 0
-919 -960 0
-919 -1001 0
-960 -1001 0
-838 -879 0
-838 -920 0
-838 -961 0
-838 -1002 0
-879 -920 0
-879 -961 0
-879 -1002 0
-920 -961 0
-920 -1002 0
-961 -1002 0
-839 -880 0
-839 -921 0
-839 -962 0
-839 -1003 0
-880 -921 0
-880 -962 0
-880 -1003 0
-921 -962 0
-921 -1003 0
-962 -1003 0
-840 -881 0
-840 -922 0
-840 -963 0
-840 -1004 0
-881 -922 0
-881 -963 0
-881 -1004 0
-922 -963 0
-922 -1004 0
-963 -1004 0
-841 -882 0
-841 -923 0
-841 -964 0
-841 -1005 0
-882 -923 0
-882 -964 0
-882 -1005 0
-923 -964 0
-923 -1005 0
-964 -1005 0
-842 -883 0
-842 -924 0
-842 -965 0
-842 -1006 0
-883 -924 0
-883 -965 0
-883 -1006 0
-924 -965 0
-924 -1006 0
-965 -1006 0
-843 -884 0
-843 -925 0
-843 -966 0
-843 -1007 0
-884 -925 0
-884 -966 0
-884 -1007 0
-925 -966 0
-925 -1007 0
-966 -1007 0
-844 -885 0
-844 -926 0
-844 -967 0
-844 -1008 0
-885 -926 0
-885 -967 0
-885 -1008 0
-926 -967 0
-926 -1008 0
-967 -1008 0
-845 -886 0
-845 -927 0
-845 -968 0
-845 -1009 0
-886 -927 0
-886 -968 0
-886 -1009 0
-927 -968 0
-927 -1009 0
-968 -1009 0
-846 -887 0
-846 -928 0
-846 -969 0
-846 -1010 0
-887 -928 0
-887 -969 0
-887 -1010 0
-928 -969 0
-928 -1010 0
-969 -1010 0
-847 -888 0
-847 -929 0
-847 -970 0
-847 -1011 0
-888 -929 0
-888 -970 0
-888 -1011 0
-929 -970 0
-929 -1011 0
-970 -1011 0
-848 -889 0
-848 -930 0
-848 -971 0
-848 -1012 0
-889 -930 0
-889 -971 0
-889 -1012 0
-930 -971 0
-930 -1012 0
-971 -1012 0
-849 -890 0
-849 -931 0
-849 -972 0
-849 -1013 0
-890 -931 0
-890 -972 0
-890 -1013 0
-931 -972 0
-931 -1013 0
-972 -1013 0
-850 -891 0
-850 -932 0
-850 -973 0
-850 -1014 0
-891 -932 0
-891 -973 0
-891 -1014 0
-932 -973 0
-932 -1014 0
-973 -1014 0
-851 -892 0
-851 -933 0
-851 -974 0
-851 -1015 0
-892 -933 0
-892 -974 0
-892 -1015 0
-933 -974 0
-933 -1015 0
-974 -1015 0
-852 -893 0
-852 -934 0
-852 -975 0
-852 -1016 0
-893 -934 0
-893 -975 0
-893 -1016 0
-934 -975 0
-934 -1016 0
-975 -1016 0
-853 -894 0
-853 -935 0
-853 -976 0
-853 -1017 0
-894 -935 0
-894 -976 0
-894 -1017 0
-935 -976 0
-935 -1017 0
-976 -1017 0
-854 -895 0
-854 -936 0
-854 -977 0
-854 -1018 0
-895 -936 0
-895 -977 0
-895 -1018 0
-936 -977 0
-936 -1018 0
-977 -1018 0
-855 -896 0
-855 -937 0
-855 -978 0
-855 -1019 0
-896 -937 0
-896 -978 0
-896 -1019 0
-937 -978 0
-937 -1019 0
-978 -1019 0
-856 -897 0
-856 -938 0
-856 -979 0
-856 -1020 0
-897 -938 0
-897 -979 0
-897 -1020 0
-938 -979 0
-938 -1020 0
-979 -1020 0
-857 -898 0
-857 -939 0
-857 -980 0
-857 -1021 0
-898 -939 0
-898 -980 0
-898 -1021 0
-939 -980 0
-939 -1021 0
-980 -1021 0
-858 -899 0
-858 -940 0
-858 -981 0
-858 -1022 0
-899 -940 0
-899 -981 0
-899 -1022 0
-940 -981 0
-940 -1022 0
-981 -1022 0
-859 -900 0
-859 -941 0
-859 -982 0
-859 -1023 0
-900 -941 0
-900 -982 0
-900 -1023 0
-941 -982 0
-941 -1023 0
-982 -1023 0
-860 -901 0
-860 -942 0
-860 -983 0
-860 -1024 0
-901 -942 0
-901 -983 0
-901 -1024 0
-942 -983 0
-942 -1024 0
-983 -1024 0
-861 -902 0
-861 -943 0
-861 -984 0
-861 -1025 0
-902 -943 0
-902 -984 0
-902 -1025 0
-943 -984 0
-943 -1025 0
-984 -1025 0
1 -821 -863 0
1 -822 -862 0
1 -821 -904 0
1 -822 -903 0
1 -821 -945 0
1 -822 -944 0
1 -821 -986 0
1 -822 -985 0
1 -862 -904 0
1 -863 -903 0
1 -862 -945 0
1 -863 -944 0
1 -862 -986 0
1 -863 -985 0
1 -903 -945 0
1 -904 -944 0
1 -903 -986 0
1 -904 -985 0
1 -944 -986 0
1 -945 -985 0
2 -821 -864 0
2 -823 -862 0
2 -821 -905 0
2 -823 -903 0
2 -821 -946 0
2 -823 -944 0
2 -821 -987 0
2 -823 -985 0
2 -862 -905 0
2 -864 -903 0
2 -862 -946 0
2 -864 -944 0
2 -862 -987 0
2 -864 -985 0
2 -903 -946 0
2 -905 -944 0
2 -903 -987 0
2 -905 -985 0
2 -944 -987 0
2 -946 -985 0
3 -821 -865 0
3 -824 -862 0
3 -821 -906 0
3 -824 -903 0
3 -821 -947 0
3 -824 -944 0
3 -821 -988 0
3 -824 -985 0
3 -862 -906 0
3 -865 -903 0
3 -862 -947 0
3 -865 -944 0
3 -862 -988 0
3 -865 -985 0
3 -903 -947 0
3 -906 -944 0
3 -903 -988 0
3 -906 -985 0
3 -944 -988 0
3 -947 -985 0
4 -821 -866 0
4 -825 -862 0
4 -821 -907 0
4 -825 -903 0
4 -821 -948 0
4 -825 -944 0
4 -821 -989 0
4 -825 -985 0
4 -862 -907 0
4 -866 -903 0
4 -862 -948 0
4 -866 -944 0
4 -862 -989 0
4 -866 -985 0
4 -903 -948 0
4 -907 -944 0
4 -903 -989 0
4 -907 -985 0
4 -944 -989 0
4 -948 -985 0
5 -821 -867 0
5 -826 -862 0
5 -821 -908 0
5 -826 -903 0
5 -821 -949 0
5 -826 -944 0
5 -821 -990 0
5 -826 -985 0
5 -862 -908 0
5 -867 -903 0
5 -862 -949 0
5 -867 -944 0
5 -862 -990 0
5 -867 -985 0
5 -903 -949 0
5 -908 -944 0
5 -903 -990 0
5 -908 -985 0
5 -944 -990 0
5 -949 -985 0
6 -821 -868 0
6 -827 -862 0
6 -821 -909 0
6 -827 -903 0
6 -821 -950 0
6 -827 -944 0
6 -821 -991 0
6 -827 -985 0
6 -862 -909 0
6 -868 -903 0
6 -862 -950 0
6 -868 -944 0
6 -862 -991 0
6 -868 -985 0
6 -903 -950 0
6 -909 -944 0
6 -903 -991 0
6 -909 -985 0
6 -944 -991 0
6 -950 -985 0
7 -821 -869 0
7 -828 -862 0
7 -821 -910 0
7 -828 -903 0
7 -821 -951 0
7 -828 -944 0
7 -821 -992 0
7 -828 -985 0
7 -862 -910 0
7 -869 -903 0
7 -862 -951 0
7 -869 -944 0
7 -862 -992 0
7 -869 -985 0
7 -903 -951 0
7 -910 -944 0
7 -903 -992 0
7 -910 -985 0
7 -944 -992 0
7 -951 -985 0
8 -821 -870 0
8 -829 -862 0
8 -821 -911 0
8 -829 -903 0
8 -821 -952 0
8 -829 -944 0
8 -821 -993 0
8 -829 -985 0
8 -862 -911 0
8 -870 -903 0
8 -862 -952 0
8 -870 -944 0
8 -862 -993 0
8 -870 -985 0
8 -903 -952 0
8 -911 -944 0
8 -903 -993 0
8 -911 -985 0
8 -944 -993 0
8 -952 -985 0
9 -821 -871 0
9 -830 -862 0
9 -821 -912 0
9 -830 -903 0
9 -821 -953 0
9 -830 -944 0
9 -821 -994 0
9 -830 -985 0
9 -862 -912 0
9 -871 -903 0
9 -862 -953 0
9 -871 -944 0
9 -862 -994 0
9 -871 -985 0
9 -903 -953 0
9 -912 -944 0
9 -903 -994 0
9 -912 -985 0
9 -944 -994 0
9 -953 -985 0
10 -821 -872 0
10 -831 -862 0
10 -821 -913 0
10 -831 -903 0
10 -821 -954 0
10 -831 -944 0
10 -821 -995 0
10 -831 -985 0
10 -862 -913 0
10 -872 -903 0
10 -862 -954 0
10 -872 -944 0
10 -862 -995 0
10 -872 -985 0
10 -903 -954 0
10 -913 -944 0
10 -903 -995 0
10 -913 -985 0
10 -944 -995 0
10 -954 -985 0
11 -821 -873 0
11 -832 -862 0
11 -821 -914 0
11 -832 -903 0
11 -821 -955 0
11 -832 -944 0
11 -821 -996 0
11 -832 -985 0
11 -862 -914 0
11 -873 -903 0
11 -862 -955 0
11 -873 -944 0
11 -862 -996 0
11 -873 -985 0
11 -903 -955 0
11 -914 -944 0
11 -903 -996 0
11 -914 -985 0
11 -944 -996 0
11 -955 -985 0
12 -821 -874 0
12 -833 -862 0
12 -821 -915 0
12 -833 -903 0
12 -821 -956 0
12 -833 -944 0
12 -821 -997 0
12 -833 -985 0
12 -862 -915 0
12 -874 -903 0
12 -862 -956 0
12 -874 -944 0
12 -862 -997 0
12 -874 -985 0
12 -903 -956 0
12 -915 -944 0
12 -903 -997 0
12 -915 -985 0
12 -944 -997 0
12 -956 -985 0
13 -821 -875 0
13 -834 -862 0
13 -821 -916 0
13 -834 -903 0
13 -821 -957 0
13 -834 -944 0
13 -821 -998 0
13 -834 -985 0
13 -862 -916 0
13 -875 -903 0
13 -862 -957 0
13 -875 -944 0
13 -862 -998 0
13 -875 -985 0
13 -903 -957 0
13 -916 -944 0
13 -903 -998 0
13 -916 -985 0
13 -944 -998 0
13 -957 -985 0
14 -821 -876 0
14 -835 -862 0
14 -821 -917 0
14 -835 -903 0
14 -821 -958 0
14 -835 -944 0
14 -821 -999 0
14 -835 -985 0
14 -862 -917 0
14 -876 -903 0
14 -862 -958 0
14 -876 -944 0
14 -862 -999 0
14 -876 -985 0
14 -903 -958 0
14 -917 -944 0
14 -903 -999 0
14 -917 -985 0
14 -944 -999 0
14 -958 -985 0
15 -821 -877 0
15 -836 -862 0
15 -821 -918 0
15 -836 -903 0
15 -821 -959 0
15 -836 -944 0
15 -821 -1000 0
15 -836 -985 0
15 -862 -918 0
15 -877 -903 0
15 -862 -959 0
15 -877 -944 0
15 -862 -1000 0
15 -877 -985 0
15 -903 -959 0
15 -918 -944 0
15 -903 -1000 0
15 -918 -985 0
15 -944 -1000 0
15 -959 -985 0
16 -821 -878 0
16 -837 -862 0
16 -821 -919 0
16 -837 -903 0
16 -821 -960 0
16 -837 -944 0
16 -821 -1001 0
16 -837 -985 0
16 -862 -919 0
16 -878 -903 0
16 -862 -960 0
16 -878 -944 0
16 -862 -1001 0
16 -878 -985 0
16 -903 -960 0
16 -919 -944 0
16 -903 -1001 0
16 -919 -985 0
16 -944 -1001 0
16 -960 -985 0
17 -821 -879 0
17 -838 -862 0
17 -821 -920 0
17 -838 -903 0
17 -821 -961 0
17 -838 -944 0
17 -821 -1002 0
17 -838 -985 0
17 -862 -920 0
17 -879 -903 0
17 -862 -961 0
17 -879 -944 0
17 -862 -1002 0
17 -879 -985 0
17 -903 -961 0
17 -920 -944 0
17 -903 -1002 0
17 -920 -985 0
17 -944 -1002 0
17 -961 -985 0
18 -821 -880 0
18 -839 -862 0
18 -821 -921 0
18 -839 -903 0
18 -821 -962 0
18 -839 -944 0
18 -821 -1003 0
18 -839 -985 0
18 -862 -921 0
18 -880 -903 0
18 -862 -962 0
18 -880 -944 0
18 -862 -1003 0
18 -880 -985 0
18 -903 -962 0
18 -921 -944 0
18 -903 -1003 0
18 -921 -985 0
18 -944 -1003 0
18 -962 -985 0
19 -821 -881 0
19 -840 -862 0
19 -821 -922 0
19 -840 -903 0
19 -821 -963 0
19 -840 -944 0
19 -821 -1004 0
19 -840 -985 0
19 -862 -922 0
19 -881 -903 0
19 -862 -963 0
19 -881 -944 0
19 -862 -1004 0
19 -881 -985 0
19 -903 -963 0
19 -922 -944 0
19 -903 -1004 0
19 -922 -985 0
19 -944 -1004 0
19 -963 -985 0
20 -821 -882 0
20 -841 -862 0
20 -821 -923 0
20 -841 -903 0
20 -821 -964 0
20 -841 -944 0
20 -821 -1005 0
20 -841 -985 0
20 -862 -923 0
20 -882 -903 0
20 -862 -964 0
20 -882 -944 0
20 -862 -1005 0
20 -882 -985 0
20 -903 -964 0
20 -923 -944 0
20 -903 -1005 0
20 -923 -985 0
20 -944 -1005 0
20 -964 -985 0
21 -821 -883 0
21 -842 -862 0
21 -821 -924 0
21 -842 -903 0
21 -821 -965 0
21 -842 -944 0
21 -821 -1006 0
21 -842 -985 0
21 -862 -924 0
21 -883 -903 0
21 -862 -965 0
21 -883 -944 0
21 -862 -1006 0
21 -883 -985 0
21 -903 -965 0
21 -924 -944 0
21 -903 -1006 0
21 -924 -985 0
21 -944 -1006 0
21 -965 -985 0
22 -821 -884 0
22 -843 -862 0
22 -821 -925 0
22 -843 -903 0
22 -821 -966 0
22 -843 -944 0
22 -821 -1007 0
22 -843 -985 0
22 -862 -925 0
22 -884 -903 0
22 -862 -966 0
22 -884 -944 0
22 -862 -1007 0
22 -884 -985 0
22 -903 -966 0
22 -925 -944 0
22 -903 -1007 0
22 -925 -985 0
22 -944 -1007 0
22 -966 -985 0
23 -821 -885 0
23 -844 -862 0
23 -821 -926 0
23 -844 -903 0
23 -821 -967 0
23 -844 -944 0
23 -821 -1008 0
23 -844 -985 0
23 -862 -926 0
23 -885 -903 0
23 -862 -967 0
23 -885 -944 0
23 -862 -1008 0
23 -885 -985 0
23 -903 -967 0
23 -926 -944 0
23 -903 -1008 0
23 -926 -985 0
23 -944 -1008 0
23 -967 -985 0
24 -821 -886 0
24 -845 -862 0
24 -821 -927 0
24 -845 -903 0
24 -821 -968 0
24 -845 -944 0
24 -821 -1009 0
24 -845 -985 0
24 -862 -927 0
24 -886 -903 0
24 -862 -968 0
24 -886 -944 0
24 -862 -1009 0
24 -886 -985 0
24 -903 -968 0
24 -927 -944 0
24 -903 -1009 0
24 -927 -985 0
24 -944 -1009 0
24 -968 -985 0
25 -821 -887 0
25 -846 -862 0
25 -821 -928 0
25 -846 -903 0
25 -821 -969 0
25 -846 -944 0
25 -821 -1010 0
25 -846 -985 0
25 -862 -928 0
25 -887 -903 0
25 -862 -969 0
25 -887 -944 0
25 -862 -1010 0
25 -887 -985 0
25 -903 -969 0
25 -928 -944 0
25 -903 -1010 0
25 -928 -985 0
25 -944 -1010 0
25 -969 -985 0
26 -821 -888 0
26 -847 -862 0
26 -821 -929 0
26 -847 -903 0
26 -821 -970 0
26 -847 -944 0
26 -821 -1011 0
26 -847 -985 0
26 -862 -929 0
26 -888 -903 0
26 -862 -970 0
26 -888 -944 0
26 -862 -1011 0
26 -888 -985 0
26 -903 -970 0
26 -929 -944 0
26 -903 -1011 0
26 -929 -985 0
26 -944 -1011 0
26 -970 -985 0
27 -821 -889 0
27 -848 -862 0
27 -821 -930 0
27 -848 -903 0
27 -821 -971 0
27 -848 -944 0
27 -821 -1012 0
27 -848 -985 0
27 -862 -930 0
27 -889 -903 0
27 -862 -971 0
27 -889 -944 0
27 -862 -1012 0
27 -889 -985 0
27 -903 -971 0
27 -930 -944 0
27 -903 -1012 0
27 -930 -985 0
27 -944 -1012 0
27 -971 -985 0
28 -821 -890 0
28 -849 -862 0
28 -821 -931 0
28 -849 -903 0
28 -821 -972 0
28 -849 -944 0
28 -821 -1013 0
28 -849 -985 0
28 -862 -931 0
28 -890 -903 0
28 -862 -972 0
28 -890 -944 0
28 -862 -1013 0
28 -890 -985 0
28 -903 -972 0
28 -931 -944 0
28 -903 -1013 0
28 -931 -985 0
28 -944 -1013 0
28 -972 -985 0
29 -821 -891 0
29 -850 -862 0
29 -821 -932 0
29 -850 -903 0
29 -821 -973 0
29 -850 -944 0
29 -821 -1014 0
29 -850 -985 0
29 -862 -932 0
29 -891 -903 0
29 -862 -973 0
29 -891 -944 0
29 -862 -1014 0
29 -891 -985 0
29 -903 -973 0
29 -932 -944 0
29 -903 -1014 0
29 -932 -985 0
29 -944 -1014 0
29 -973 -985 0
30 -821 -892 0
30 -851 -862 0
30 -821 -933 0
30 -851 -903 0
30 -821 -974 0
30 -851 -944 0
30 -821 -1015 0
30 -851 -985 0
30 -862 -933 0
30 -892 -903 0
30 -862 -974 0
30 -892 -944 0
30 -862 -1015 0
30 -892 -985 0
30 -903 -974 0
30 -933 -944 0
30 -903 -1015 0
30 -933 -985 0
30 -944 -1015 0
30 -974 -985 0
31 -821 -893 0
31 -852 -862 0
31 -821 -934 0
31 -852 -903 0
31 -821 -975 0
31 -852 -944 0
31 -821 -1016 0
31 -852 -985 0
31 -862 -934 0
31 -893 -903 0
31 -862 -975 0
31 -893 -944 0
31 -862 -1016 0
31 -893 -985 0
31 -903 -975 0
31 -934 -944 0
31 -903 -1016 0
31 -934 -985 0
31 -944 -1016 0
31 -975 -985 0
32 -821 -894 0
32 -853 -862 0
32 -821 -935 0
32 -853 -903 0
32 -821 -976 0
32 -853 -944 0
32 -821 -1017 0
32 -853 -985 0
32 -862 -935 0
32 -894 -903 0
32 -862 -976 0
32 -894 -944 0
32 -862 -1017 0
32 -894 -985 0
32 -903 -976 0
32 -935 -944 0
32 -903 -1017 0
32 -935 -985 0
32 -944 -1017 0
32 -976 -985 0
33 -821 -895 0
33 -854 -862 0
33 -821 -936 0
33 -854 -903 0
33 -821 -977 0
33 -854 -944 0
33 -821 -1018 0
33 -854 -985 0
33 -862 -936 0
33 -895 -903 0
33 -862 -977 0
33 -895 -944 0
33 -862 -1018 0
33 -895 -985 0
33 -903 -977 0
33 -936 -944 0
33 -903 -1018 0
33 -936 -985 0
33 -944 -1018 0
33 -977 -985 0
34 -821 -896 0
34 -855 -862 0
34 -821 -937 0
34 -855 -903 0
34 -821 -978 0
34 -855 -944 0
34 -821 -1019 0
34 -855 -985 0
34 -862 -937 0
34 -896 -903 0
34 -862 -978 0
34 -896 -944 0
34 -862 -1019 0
34 -896 -985 0
34 -903 -978 0
34 -937 -944 0
34 -903 -1019 0
34 -937 -985 0
34 -944 -1019 0
34 -978 -985 0
35 -821 -897 0
35 -856 -862 0
35 -821 -938 0
35 -856 -903 0
35 -821 -979 0
35 -856 -944 0
35 -821 -1020 0
35 -856 -985 0
35 -862 -938 0
35 -897 -903 0
35 -862 -979 0
35 -897 -944 0
35 -862 -1020 0
35 -897 -985 0
35 -903 -979 0
35 -938 -944 0
35 -903 -1020 0
35 -938 -985 0
35 -944 -1020 0
35 -979 -985 0
36 -821 -898 0
36 -857 -862 0
36 -821 -939 0
36 -857 -903 0
36 -821 -980 0
36 -857 -944 0
36 -821 -1021 0
36 -857 -985 0
36 -862 -939 0
36 -898 -903 0
36 -862 -980 0
36 -898 -944 0
36 -862 -1021 0
36 -898 -985 0
36 -903 -980 0
36 -939 -944 0
36 -903 -1021 0
36 -939 -985 0
36 -944 -1021 0
36 -980 -985 0
37 -821 -899 0
37 -858 -862 0
37 -821 -940 0
37 -858 -903 0
37 -821 -981 0
37 -858 -944 0
37 -821 -1022 0
37 -858 -985 0
37 -862 -940 0
37 -899 -903 0
37 -862 -981 0
37 -899 -944 0
37 -862 -1022 0
37 -899 -985 0
37 -903 -981 0
37 -940 -944 0
37 -903 -1022 0
37 -940 -985 0
37 -944 -1022 0
37 -981 -985 0
38 -821 -900 0
38 -859 -862 0
38 -821 -941 0
38 -859 -903 0
38 -821 -982 0
38 -859 -944 0
38 -821 -1023 0
38 -859 -985 0
38 -862 -941 0
38 -900 -903 0
38 -862 -982 0
38 -900 -944 0
38 -862 -1023 0
38 -900 -985 0
38 -903 -982 0
38 -941 -944 0
38 -903 -1023 0
38 -941 -985 0
38 -944 -1023 0
38 -982 -985 0
39 -821 -901 0
39 -860 -862 0
39 -821 -942 0
39 -860 -903 0
39 -821 -983 0
39 -860 -944 0
39 -821 -1024 0
39 -860 -985 0
39 -862 -942 0
39 -901 -903 0
39 -862 -983 0
39 -901 -944 0
39 -862 -1024 0
39 -901 -985 0
39 -903 -983 0
39 -942 -944 0
39 -903 -1024 0
39 -942 -985 0
39 -944 -1024 0
39 -983 -985 0
40 -821 -902 0
40 -861 -862 0
40 -821 -943 0
40 -861 -903 0
40 -821 -984 0
40 -861 -944 0
40 -821 -1025 0
40 -861 -985 0
40 -862 -943 0
40 -902 -903 0
40 -862 -984 0
40 -902 -944 0
40 -862 -1025 0
40 -902 -985 0
40 -903 -984 0
40 -943 -944 0
40 -903 -1025 0
40 -943 -985 0
40 -944 -1025 0
40 -984 -985 0
41 -822 -864 0
41 -823 -863 0
41 -822 -905 0
41 -823 -904 0
41 -822 -946 0
41 -823 -945 0
41 -822 -987 0
41 -823 -986 0
41 -863 -905 0
41 -864 -904 0
41 -863 -946 0
41 -864 -945 0
41 -863 -987 0
41 -864 -986 0
41 -904 -946 0
41 -905 -945 0
41 -904 -987 0
41 -905 -986 0
41 -945 -987 0
41 -946 -986 0
42 -822 -865 0
42 -824 -863 0
42 -822 -906 0
42 -824 -904 0
42 -822 -947 0
42 -824 -945 0
42 -822 -988 0
42 -824 -986 0
42 -863 -906 0
42 -865 -904 0
42 -863 -947 0
42 -865 -945 0
42 -863 -988 0
42 -865 -986 0
42 -904 -947 0
42 -906 -945 0
42 -904 -988 0
42 -906 -986 0
42 -945 -988 0
42 -947 -986 0
43 -822 -866 0
43 -825 -863 0
43 -822 -907 0
43 -825 -904 0
43 -822 -948 0
43 -825 -945 0
43 -822 -989 0
43 -825 -986 0
43 -863 -907 0
43 -866 -904 0
43 -863 -948 0
43 -866 -945 0
43 -863 -989 0
43 -866 -986 0
43 -904 -948 0
43 -907 -945 0
43 -904 -989 0
43 -907 -986 0
43 -945 -989 0
43 -948 -986 0
44 -822 -867 0
44 -826 -863 0
44 -822 -908 0
44 -826 -904 0
44 -822 -949 0
44 -826 -945 0
44 -822 -990 0
44 -826 -986 0
44 -863 -908 0
44 -867 -904 0
44 -863 -949 0
44 -867 -945 0
44 -863 -990 0
44 -867 -986 0
44 -904 -949 0
44 -908 -945 0
44 -904 -990 0
44 -908 -986 0
44 -945 -990 0
44 -949 -986 0
45 -822 -868 0
45 -827 -863 0
45 -822 -909 0
45 -827 -904 0
45 -822 -950 0
45 -827 -945 0
45 -822 -991 0
45 -827 -986 0
45 -863 -909 0
45 -868 -904 0
45 -863 -950 0
45 -868 -945 0
45 -863 -991 0
45 -868 -986 0
45 -904 -950 0
45 -909 -945 0
45 -904 -991 0
45 -909 -986 0
45 -945 -991 0
45 -950 -986 0
46 -822 -869 0
46 -828 -863 0
46 -822 -910 0
46 -828 -904 0
46 -822 -951 0
46 -828 -945 0
46 -822 -992 0
46 -828 -986 0
46 -863 -910 0
46 -869 -904 0
46 -863 -951 0
46 -869 -945 0
46 -863 -992 0
46 -869 -986 0
46 -904 -951 0
46 -910 -945 0
46 -904 -992 0
46 -910 -986 0
46 -945 -992 0
46 -951 -986 0
47 -822 -870 0
47 -829 -863 0
47 -822 -911 0
47 -829 -904 0
47 -822 -952 0
47 -829 -945 0
47 -822 -993 0
47 -829 -986 0
47 -863 -911 0
47 -870 -904 0
47 -863 -952 0
47 -870 -945 0
47 -863 -993 0
47 -870 -986 0
47 -904 -952 0
47 -911 -945 0
47 -904 -993 0
47 -911 -986 0
47 -945 -993 0
47 -952 -986 0
48 -822 -871 0
48 -830 -863 0
48 -822 -912 0
48 -830 -904 0
48 -822 -953 0
48 -830 -945 0
48 -822 -994 0
48 -830 -986 0
48 -863 -912 0
48 -871 -904 0
48 -863 -953 0
48 -871 -945 0
48 -863 -994 0
48 -871 -986 0
48 -904 -953 0
48 -912 -945 0
48 -904 -994 0
48 -912 -986 0
48 -945 -994 0
48 -953 -986 0
49 -822 -872 0
49 -831 -863 0
49 -822 -913 0
49 -831 -904 0
49 -822 -954 0
49 -831 -945 0
49 -822 -995 0
49 -831 -986 0
49 -863 -913 0
49 -872 -904 0
49 -863 -954 0
49 -872 -945 0
49 -863 -995 0
49 -872 -986 0
49 -904 -954 0
49 -913 -945 0
49 -904 -995 0
49 -913 -986 0
49 -945 -995 0
49 -954 -986 0
50 -822 -873 0
50 -832 -863 0
50 -822 -914 0
50 -832 -904 0
50 -822 -955 0
50 -832 -945 0
50 -822 -996 0
50 -832 -986 0
50 -863 -914 0
50 -873 -904 0
50 -863 -955 0
50 -873 -945 0
50 -863 -996 0
50 -873 -986 0
50 -904 -955 0
50 -914 -945 0
50 -904 -996 0
50 -914 -986 0
50 -945 -996 0
50 -955 -986 0
51 -822 -874 0
51 -833 -863 0
51 -822 -915 0
51 -833 -904 0
51 -822 -956 0
51 -833 -945 0
51 -822 -997 0
51 -833 -986 0
51 -863 -915 0
51 -874 -904 0
51 -863 -956 0
51 -874 -945 0
51 -863 -997 0
51 -874 -986 0
51 -904 -956 0
51 -915 -945 0
51 -904 -997 0
51 -915 -986 0
51 -945 -997 0
51 -956 -986 0
52 -822 -875 0
52 -834 -863 0
52 -822 -916 0
52 -834 -904 0
52 -822 -957 0
52 -834 -945 0
52 -822 -998 0
52 -834 -986 0
52 -863 -916 0
52 -875 -904 0
52 -863 -957 0
52 -875 -945 0
52 -863 -998 0
52 -875 -986 0
52 -904 -957 0
52 -916 -945 0
52 -904 -998 0
52 -916 -986 0
52 -945 -998 0
52 -957 -986 0
53 -822 -876 0
53 -835 -863 0
53 -822 -917 0
53 -835 -904 0
53 -822 -958 0
53 -835 -945 0
53 -822 -999 0
53 -835 -986 0
53 -863 -917 0
53 -876 -904 0
53 -863 -958 0
53 -876 -945 0
53 -863 -999 0
53 -876 -986 0
53 -904 -958 0
53 -917 -945 0
53 -904 -999 0
53 -917 -986 0
53 -945 -999 0
53 -958 -986 0
54 -822 -877 0
54 -836 -863 0
54 -822 -918 0
54 -836 -904 0
54 -822 -959 0
54 -836 -945 0
54 -822 -1000 0
54 -836 -986 0
54 -863 -918 0
54 -877 -904 0
54 -863 -959 0
54 -877 -945 0
54 -863 -1000 0
54 -877 -986 0
54 -904 -959 0
54 -918 -945 0
54 -904 -1000 0
54 -918 -986 0
54 -945 -1000 0
54 -959 -986 0
55 -822 -878 0
55 -837 -863 0
55 -822 -919 0
55 -837 -904 0
55 -822 -960 0
55 -837 -945 0
55 -822 -1001 0
55 -837 -986 0
55 -863 -919 0
55 -878 -904 0
55 -863 -960 0
55 -878 -945 0
55 -863 -1001 0
55 -878 -986 0
55 -904 -960 0
55 -919 -945 0
55 -904 -1001 0
55 -919 -986 0
55 -945 -1001 0
55 -960 -986 0
56 -822 -879 0
56 -838 -863 0
56 -822 -920 0
56 -838 -904 0
56 -822 -961 0
56 -838 -945 0
56 -822 -1002 0
56 -838 -986 0
56 -863 -920 0
56 -879 -904 0
56 -863 -961 0
56 -879 -945 0
56 -863 -1002 0
56 -879 -986 0
56 -904 -961 0
56 -920 -945 0
56 -904 -1002 0
56 -920 -986 0
56 -945 -1002 0
56 -961 -986 0
57 -822 -880 0
57 -839 -863 0
57 -822 -921 0
57 -839 -904 0
57 -822 -962 0
57 -839 -945 0
57 -822 -1003 0
57 -839 -986 0
57 -863 -921 0
57 -880 -904 0
57 -863 -962 0
57 -880 -945 0
57 -863 -1003 0
57 -880 -986 0
57 -904 -962 0
57 -921 -945 0
57 -904 -1003 0
57 -921 -986 0
57 -945 -1003 0
57 -962 -986 0
58 -822 -881 0
58 -840 -863 0
58 -822 -922 0
58 -840 -904 0
58 -822 -963 0
58 -840 -945 0
58 -822 -1004 0
58 -840 -986 0
58 -863 -922 0
58 -881 -904 0
58 -863 -963 0
58 -881 -945 0
58 -863 -1004 0
58 -881 -986 0
58 -904 -963 0
58 -922 -945 0
58 -904 -1004 0
58 -922 -986 0
58 -945 -1004 0
58 -963 -986 0
59 -822 -882 0
59 -841 -863 0
59 -822 -923 0
59 -841 -904 0
59 -822 -964 0
59 -841 -945 0
59 -822 -1005 0
59 -841 -986 0
59 -863 -923 0
59 -882 -904 0
59 -863 -964 0
59 -882 -945 0
59 -863 -1005 0
59 -882 -986 0
59 -904 -964 0
59 -923 -945 0
59 -904 -1005 0
59 -923 -986 0
59 -945 -1005 0
59 -964 -986 0
60 -822 -883 0
60 -842 -863 0
60 -822 -924 0
60 -842 -904 0
60 -822 -965 0
60 -842 -945 0
60 -822 -1006 0
60 -842 -986 0
60 -863 -924 0
60 -883 -904 0
60 -863 -965 0
60 -883 -945 0
60 -863 -1006 0
60 -883 -986 0
60 -904 -965 0
60 -924 -945 0
60 -904 -1006 0
60 -924 -986 0
60 -945 -1006 0
60 -965 -986 0
61 -822 -884 0
61 -843 -863 0
61 -822 -925 0
61 -843 -904 0
61 -822 -966 0
61 -843 -945 0
61 -822 -1007 0
61 -843 -986 0
61 -863 -925 0
61 -884 -904 0
61 -863 -966 0
61 -884 -945 0
61 -863 -1007 0
61 -884 -986 0
61 -904 -966 0
61 -925 -945 0
61 -904 -1007 0
61 -925 -986 0
61 -945 -1007 0
61 -966 -986 0
62 -822 -885 0
62 -844 -863 0
62 -822 -926 0
62 -844 -904 0
62 -822 -967 0
62 -844 -945 0
62 -822 -1008 0
62 -844 -986 0
62 -863 -926 0
62 -885 -904 0
62 -863 -967 0
62 -885 -945 0
62 -863 -1008 0
62 -885 -986 0
62 -904 -967 0
62 -926 -945 0
62 -904 -1008 0
62 -926 -986 0
62 -945 -1008 0
62 -967 -986 0
63 -822 -886 0
63 -845 -863 0
63 -822 -927 0
63 -845 -904 0
63 -822 -968 0
63 -845 -945 0
63 -822 -1009 0
63 -845 -986 0
63 -863 -927 0
63 -886 -904 0
63 -863 -968 0
63 -886 -945 0
63 -863 -1009 0
63 -886 -986 0
63 -904 -968 0
63 -927 -945 0
63 -904 -1009 0
63 -927 -986 0
63 -945 -1009 0
63 -968 -986 0
64 -822 -887 0
64 -846 -863 0
64 -822 -928 0
64 -846 -904 0
64 -822 -969 0
64 -846 -945 0
64 -822 -1010 0
64 -846 -986 0
64 -863 -928 0
64 -887 -904 0
64 -863 -969 0
64 -887 -945 0
64 -863 -1010 0
64 -887 -986 0
64 -904 -969 0
64 -928 -945 0
64 -904 -1010 0
64 -928 -986 0
64 -945 -1010 0
64 -969 -986 0
65 -822 -888 0
65 -847 -863 0
65 -822 -929 0
65 -847 -904 0
65 -822 -970 0
65 -847 -945 0
65 -822 -1011 0
65 -847 -986 0
65 -863 -929 0
65 -888 -904 0
65 -863 -970 0
65 -888 -945 0
65 -863 -1011 0
65 -888 -986 0
65 -904 -970 0
65 -929 -945 0
65 -904 -1011 0
65 -929 -986 0
65 -945 -1011 0
65 -970 -986 0
66 -822 -889 0
66 -848 -863 0
66 -822 -930 0
66 -848 -904 0
66 -822 -971 0
66 -848 -945 0
66 -822 -1012 0
66 -848 -986 0
66 -863 -930 0
66 -889 -904 0
66 -863 -971 0
66 -889 -945 0
66 -863 -1012 0
66 -889 -986 0
66 -904 -971 0
66 -930 -945 0
66 -904 -1012 0
66 -930 -986 0
66 -945 -1012 0
66 -971 -986 0
67 -822 -890 0
67 -849 -863 0
67 -822 -931 0
67 -849 -904 0
67 -822 -972 0
67 -849 -945 0
67 -822 -1013 0
67 -849 -986 0
67 -863 -931 0
67 -890 -904 0
67 -863 -972 0
67 -890 -945 0
67 -863 -1013 0
67 -890 -986 0
67 -904 -972 0
67 -931 -945 0
67 -904 -1013 0
67 -931 -986 0
67 -945 -1013 0
67 -972 -986 0
68 -822 -891 0
68 -850 -863 0
68 -822 -932 0
68 -850 -904 0
68 -822 -973 0
68 -850 -945 0
68 -822 -1014 0
68 -850 -986 0
68 -863 -932 0
68 -891 -904 0
68 -863 -973 0
68 -891 -945 0
68 -863 -1014 0
68 -891 -986 0
68 -904 -973 0
68 -932 -945 0
68 -904 -1014 0
68 -932 -986 0
68 -945 -1014 0
68 -973 -986 0
69 -822 -892 0
69 -851 -863 0
69 -822 -933 0
69 -851 -904 0
69 -822 -974 0
69 -851 -945 0
69 -822 -1015 0
69 -851 -986 0
69 -863 -933 0
69 -892 -904 0
69 -863 -974 0
69 -892 -945 0
69 -863 -1015 0
69 -892 -986 0
69 -904 -974 0
69 -933 -945 0
69 -904 -1015 0
69 -933 -986 0
69 -945 -1015 0
69 -974 -986 0
70 -822 -893 0
70 -852 -863 0
70 -822 -934 0
70 -852 -904 0
70 -822 -975 0
70 -852 -945 0
70 -822 -1016 0
70 -852 -986 0
70 -863 -934 0
70 -893 -904 0
70 -863 -975 0
70 -893 -945 0
70 -863 -1016 0
70 -893 -986 0
70 -904 -975 0
70 -934 -945 0
70 -904 -1016 0
70 -934 -986 0
70 -945 -1016 0
70 -975 -986 0
71 -822 -894 0
71 -853 -863 0
71 -822 -935 0
71 -853 -904 0
71 -822 -976 0
71 -853 -945 0
71 -822 -1017 0
71 -853 -986 0
71 -863 -935 0
71 -894 -904 0
71 -863 -976 0
71 -894 -945 0
71 -863 -1017 0
71 -894 -986 0
71 -904 -976 0
71 -935 -945 0
71 -904 -1017 0
71 -935 -986 0
71 -945 -1017 0
71 -976 -986 0
72 -822 -895 0
72 -854 -863 0
72 -822 -936 0
72 -854 -904 0
72 -822 -977 0
72 -854 -945 0
72 -822 -1018 0
72 -854 -986 0
72 -863 -936 0
72 -895 -904 0
72 -863 -977 0
72 -895 -945 0
72 -863 -1018 0
72 -895 -986 0
72 -904 -977 0
72 -936 -945 0
72 -904 -1018 0
72 -936 -986 0
72 -945 -1018 0
72 -977 -986 0
73 -822 -896 0
73 -855 -863 0
73 -822 -937 0
73 -855 -904 0
73 -822 -978 0
73 -855 -945 0
73 -822 -1019 0
73 -855 -986 0
73 -863 -937 0
73 -896 -904 0
73 -863 -978 0
73 -896 -945 0
73 -863 -1019 0
73 -896 -986 0
73 -904 -978 0
73 -937 -945 0
73 -904 -1019 0
73 -937 -986 0
73 -945 -1019 0
73 -978 -986 0
74 -822 -897 0
74 -856 -863 0
74 -822 -938 0
74 -856 -904 0
74 -822 -979 0
74 -856 -945 0
74 -822 -1020 0
74 -856 -986 0
74 -863 -938 0
74 -897 -904 0
74 -863 -979 0
74 -897 -945 0
74 -863 -1020 0
74 -897 -986 0
74 -904 -979 0
74 -938 -945 0
74 -904 -1020 0
74 -938 -986 0
74 -945 -1020 0
74 -979 -986 0
75 -822 -898 0
75 -857 -863 0
75 -822 -939 0
75 -857 -904 0
75 -822 -980 0
75 -857 -945 0
75 -822 -1021 0
75 -857 -986 0
75 -863 -939 0
75 -898 -904 0
75 -863 -980 0
75 -898 -945 0
75 -863 -1021 0
75 -898 -986 0
75 -904 -980 0
75 -939 -945 0
75 -904 -1021 0
75 -939 -986 0
75 -945 -1021 0
75 -980 -986 0
76 -822 -899 0
76 -858 -863 0
76 -822 -940 0
76 -858 -904 0
76 -822 -981 0
76 -858 -945 0
76 -822 -1022 0
76 -858 -986 0
76 -863 -940 0
76 -899 -904 0
76 -863 -981 0
76 -899 -945 0
76 -863 -1022 0
76 -899 -986 0
76 -904 -981 0
76 -940 -945 0
76 -904 -1022 0
76 -940 -986 0
76 -945 -1022 0
76 -981 -986 0
77 -822 -900 0
77 -859 -863 0
77 -822 -941 0
77 -859 -904 0
77 -822 -982 0
77 -859 -945 0
77 -822 -1023 0
77 -859 -986 0
77 -863 -941 0
77 -900 -904 0
77 -863 -982 0
77 -900 -945 0
77 -863 -1023 0
77 -900 -986 0
77 -904 -982 0
77 -941 -945 0
77 -904 -1023 0
77 -941 -986 0
77 -945 -1023 0
77 -982 -986 0
78 -822 -901 0
78 -860 -863 0
78 -822 -942 0
78 -860 -904 0
78 -822 -983 0
78 -860 -945 0
78 -822 -1024 0
78 -860 -986 0
78 -863 -942 0
78 -901 -904 0
78 -863 -983 0
78 -901 -945 0
78 -863 -1024 0
78 -901 -986 0
78 -904 -983 0
78 -942 -945 0
78 -904 -1024 0
78 -942 -986 0
78 -945 -1024 0
78 -983 -986 0
79 -822 -902 0
79 -861 -863 0
79 -822 -943 0
79 -861 -904 0
79 -822 -984 0
79 -861 -945 0
79 -822 -1025 0
79 -861 -986 0
79 -863 -943 0
79 -902 -904 0
79 -863 -984 0
79 -902 -945 0
79 -863 -1025 0
79 -902 -986 0
79 -904 -984 0
79 -943 -945 0
79 -904 -1025 0
79 -943 -986 0
79 -945 -1025 0
79 -984 -986 0
80 -823 -865 0
80 -824 -864 0
80 -823 -906 0
80 -824 -905 0
80 -823 -947 0
80 -824 -946 0
80 -823 -988 0
80 -824 -987 0
80 -864 -906 0
80 -865 -905 0
80 -864 -947 0
80 -865 -946 0
80 -864 -988 0
80 -865 -987 0
80 -905 -947 0
80 -906 -946 0
80 -905 -988 0
80 -906 -987 0
80 -946 -988 0
80 -947 -987 0
81 -823 -866 0
81 -825 -864 0
81 -823 -907 0
81 -825 -905 0
81 -823 -948 0
81 -825 -946 0
81 -823 -989 0
81 -825 -987 0
81 -864 -907 0
81 -866 -905 0
81 -864 -948 0
81 -866 -946 0
81 -864 -989 0
81 -866 -987 0
81 -905 -948 0
81 -907 -946 0
81 -905 -989 0
81 -907 -987 0
81 -946 -989 0
81 -948 -987 0
82 -823 -867 0
82 -826 -864 0
82 -823 -908 0
82 -826 -905 0
82 -823 -949 0
82 -826 -946 0
82 -823 -990 0
82 -826 -987 0
82 -864 -908 0
82 -867 -905 0
82 -864 -949 0
82 -867 -946 0
82 -864 -990 0
82 -867 -987 0
82 -905 -949 0
82 -908 -946 0
82 -905 -990 0
82 -908 -987 0
82 -946 -990 0
82 -949 -987 0
83 -823 -868 0
83 -827 -864 0
83 -823 -909 0
83 -827 -905 0
83 -823 -950 0
83 -827 -946 0
83 -823 -991 0
83 -827 -987 0
83 -864 -909 0
83 -868 -905 0
83 -864 -950 0
83 -868 -946 0
83 -864 -991 0
83 -868 -987 0
83 -905 -950 0
83 -909 -946 0
83 -905 -991 0
83 -909 -987 0
83 -946 -991 0
83 -950 -987 0
84 -823 -869 0
84 -828 -864 0
84 -823 -910 0
84 -828 -905 0
84 -823 -951 0
84 -828 -946 0
84 -823 -992 0
84 -828 -987 0
84 -864 -910 0
84 -869 -905 0
84 -864 -951 0
84 -869 -946 0
84 -864 -992 0
84 -869 -987 0
84 -905 -951 0
84 -910 -946 0
84 -905 -992 0
84 -910 -987 0
84 -946 -992 0
84 -951 -987 0
85 -823 -870 0
85 -829 -864 0
85 -823 -911 0
85 -829 -905 0
85 -823 -952 0
85 -829 -946 0
85 -823 -993 0
85 -829 -987 0
85 -864 -911 0
85 -870 -905 0
85 -864 -952 0
85 -870 -946 0
85 -864 -993 0
85 -870 -987 0
85 -905 -952 0
85 -911 -946 0
85 -905 -993 0
85 -911 -987 0
85 -946 -993 0
85 -952 -987 0
86 -823 -871 0
86 -830 -864 0
86 -823 -912 0
86 -830 -905 0
86 -823 -953 0
86 -830 -946 0
86 -823 -994 0
86 -830 -987 0
86 -864 -912 0
86 -871 -905 0
86 -864 -953 0
86 -871 -946 0
86 -864 -994 0
86 -871 -987 0
86 -905 -953 0
86 -912 -946 0
86 -905 -994 0
86 -912 -987 0
86 -946 -994 0
86 -953 -987 0
87 -823 -872 0
87 -831 -864 0
87 -823 -913 0
87 -831 -905 0
87 -823 -954 0
87 -831 -946 0
87 -823 -995 0
87 -831 -987 0
87 -864 -913 0
87 -872 -905 0
87 -864 -954 0
87 -872 -946 0
87 -864 -995 0
87 -872 -987 0
87 -905 -954 0
87 -913 -946 0
87 -905 -995 0
87 -913 -987 0
87 -946 -995 0
87 -954 -987 0
88 -823 -873 0
88 -832 -864 0
88 -823 -914 0
88 -832 -905 0
88 -823 -955 0
88 -832 -946 0
88 -823 -996 0
88 -832 -987 0
88 -864 -914 0
88 -873 -905 0
88 -864 -955 0
88 -873 -946 0
88 -864 -996 0
88 -873 -987 0
88 -905 -955 0
88 -914 -946 0
88 -905 -996 0
88 -914 -987 0
88 -946 -996 0
88 -955 -987 0
89 -823 -874 0
89 -833 -864 0
89 -823 -915 0
89 -833 -905 0
89 -823 -956 0
89 -833 -946 0
89 -823 -997 0
89 -833 -987 0
89 -864 -915 0
89 -874 -905 0
89 -864 -956 0
89 -874 -946 0
89 -864 -997 0
89 -874 -987 0
89 -905 -956 0
89 -915 -946 0
89 -905 -997 0
89 -915 -987 0
89 -946 -997 0
89 -956 -987 0
90 -823 -875 0
90 -834 -864 0
90 -823 -916 0
90 -834 -905 0
90 -823 -957 0
90 -834 -946 0
90 -823 -998 0
90 -834 -987 0
90 -864 -916 0
90 -875 -905 0
90 -864 -957 0
90 -875 -946 0
90 -864 -998 0
90 -875 -987 0
90 -905 -957 0
90 -916 -946 0
90 -905 -998 0
90 -916 -987 0
90 -946 -998 0
90 -957 -987 0
91 -823 -876 0
91 -835 -864 0
91 -823 -917 0
91 -835 -905 0
91 -823 -958 0
91 -835 -946 0
91 -823 -999 0
91 -835 -987 0
91 -864 -917 0
91 -876 -905 0
91 -864 -958 0
91 -876 -946 0
91 -864 -999 0
91 -876 -987 0
91 -905 -958 0
91 -917 -946 0
91 -905 -999 0
91 -917 -987 0
91 -946 -999 0
91 -958 -987 0
92 -823 -877 0
92 -836 -864 0
92 -823 -918 0
92 -836 -905 0
92 -823 -959 0
92 -836 -946 0
92 -823 -1000 0
92 -836 -987 0
92 -864 -918 0
92 -877 -905 0
92 -864 -959 0
92 -877 -946 0
92 -864 -1000 0
92 -877 -987 0
92 -905 -959 0
92 -918 -946 0
92 -905 -1000 0
92 -918 -987 0
92 -946 -1000 0
92 -959 -987 0
93 -823 -878 0
93 -837 -864 0
93 -823 -919 0
93 -837 -905 0
93 -823 -960 0
93 -837 -946 0
93 -823 -1001 0
93 -837 -987 0
93 -864 -919 0
93 -878 -905 0
93 -864 -960 0
93 -878 -946 0
93 -864 -1001 0
93 -878 -987 0
93 -905 -960 0
93 -919 -946 0
93 -905 -1001 0
93 -919 -987 0
93 -946 -1001 0
93 -960 -987 0
94 -823 -879 0
94 -838 -864 0
94 -823 -920 0
94 -838 -905 0
94 -823 -961 0
94 -838 -946 0
94 -823 -1002 0
94 -838 -987 0
94 -864 -920 0
94 -879 -905 0
94 -864 -961 0
94 -879 -946 0
94 -864 -1002 0
94 -879 -987 0
94 -905 -961 0
94 -920 -946 0
94 -905 -1002 0
94 -920 -987 0
94 -946 -1002 0
94 -961 -987 0
95 -823 -880 0
95 -839 -864 0
95 -823 -921 0
95 -839 -905 0
95 -823 -962 0
95 -839 -946 0
95 -823 -1003 0
95 -839 -987 0
95 -864 -921 0
95 -880 -905 0
95 -864 -962 0
95 -880 -946 0
95 -864 -1003 0
95 -880 -987 0
95 -905 -962 0
95 -921 -946 0
95 -905 -1003 0
95 -921 -987 0
95 -946 -1003 0
95 -962 -987 0
96 -823 -881 0
96 -840 -864 0
96 -823 -922 0
96 -840 -905 0
96 -823 -963 0
96 -840 -946 0
96 -823 -1004 0
96 -840 -987 0
96 -864 -922 0
96 -881 -905 0
96 -864 -963 0
96 -881 -946 0
96 -864 -1004 0
96 -881 -987 0
96 -905 -963 0
96 -922 -946 0
96 -905 -1004 0
96 -922 -987 0
96 -946 -1004 0
96 -963 -987 0
97 -823 -882 0
97 -841 -864 0
97 -823 -923 0
97 -841 -905 0
97 -823 -964 0
97 -841 -946 0
97 -823 -1005 0
97 -841 -987 0
97 -864 -923 0
97 -882 -905 0
97 -864 -964 0
97 -882 -946 0
97 -864 -1005 0
97 -882 -987 0
97 -905 -964 0
97 -923 -946 0
97 -905 -1005 0
97 -923 -987 0
97 -946 -1005 0
97 -964 -987 0
98 -823 -883 0
98 -842 -864 0
98 -823 -924 0
98 -842 -905 0
98 -823 -965 0
98 -842 -946 0
98 -823 -1006 0
98 -842 -987 0
98 -864 -924 0
98 -883 -905 0
98 -864 -965 0
98 -883 -946 0
98 -864 -1006 0
98 -883 -987 0
98 -905 -965 0
98 -924 -946 0
98 -905 -1006 0
98 -924 -987 0
98 -946 -1006 0
98 -965 -987 0
99 -823 -884 0
99 -843 -864 0
99 -823 -925 0
99 -843 -905 0
99 -823 -966 0
99 -843 -946 0
99 -823 -1007 0
99 -843 -987 0
99 -864 -925 0
99 -884 -905 0
99 -864 -966 0
99 -884 -946 0
99 -864 -1007 0
99 -884 -987 0
99 -905 -966 0
99 -925 -946 0
99 -905 -1007 0
99 -925 -987 0
99 -946 -1007 0
99 -966 -987 0
100 -823 -885 0
100 -844 -864 0
100 -823 -926 0
100 -844 -905 0
100 -823 -967 0
100 -844 -946 0
100 -823 -1008 0
100 -844 -987 0
100 -864 -926 0
100 -885 -905 0
100 -864 -967 0
100 -885 -946 0
100 -864 -1008 0
100 -885 -987 0
100 -905 -967 0
100 -926 -946 0
100 -905 -1008 0
100 -926 -987 0
100 -946 -1008 0
100 -967 -987 0
101 -823 -886 0
101 -845 -864 0
101 -823 -927 0
101 -845 -905 0
101 -823 -968 0
101 -845 -946 0
101 -823 -1009 0
101 -845 -987 0
101 -864 -927 0
101 -886 -905 0
101 -864 -968 0
101 -886 -946 0
101 -864 -1009 0
101 -886 -987 0
101 -905 -968 0
101 -927 -946 0
101 -905 -1009 0
101 -927 -987 0
101 -946 -1009 0
101 -968 -987 0
102 -823 -887 0
102 -846 -864 0
102 -823 -928 0
102 -846 -905 0
102 -823 -969 0
102 -846 -946 0
102 -823 -1010 0
102 -846 -987 0
102 -864 -928 0
102 -887 -905 0
102 -864 -969 0
102 -887 -946 0
102 -864 -1010 0
102 -887 -987 0
102 -905 -969 0
102 -928 -946 0
102 -905 -1010 0
102 -928 -987 0
102 -946 -1010 0
102 -969 -987 0
103 -823 -888 0
103 -847 -864 0
103 -823 -929 0
103 -847 -905 0
103 -823 -970 0
103 -847 -946 0
103 -823 -1011 0
103 -847 -987 0
103 -864 -929 0
103 -888 -905 0
103 -864 -970 0
103 -888 -946 0
103 -864 -1011 0
103 -888 -987 0
103 -905 -970 0
103 -929 -946 0
103 -905 -1011 0
103 -929 -987 0
103 -946 -1011 0
103 -970 -987 0
104 -823 -889 0
104 -848 -864 0
104 -823 -930 0
104 -848 -905 0
104 -823 -971 0
104 -848 -946 0
104 -823 -1012 0
104 -848 -987 0
104 -864 -930 0
104 -889 -905 0
104 -864 -971 0
104 -889 -946 0
104 -864 -1012 0
104 -889 -987 0
104 -905 -971 0
104 -930 -946 0
104 -905 -1012 0
104 -930 -987 0
104 -946 -1012 0
104 -971 -987 0
105 -823 -890 0
105 -849 -864 0
105 -823 -931 0
105 -849 -905 0
105 -823 -972 0
105 -849 -946 0
105 -823 -1013 0
105 -849 -987 0
105 -864 -931 0
105 -890 -905 0
105 -864 -972 0
105 -890 -946 0
105 -864 -1013 0
105 -890 -987 0
105 -905 -972 0
105 -931 -946 0
105 -905 -1013 0
105 -931 -987 0
105 -946 -1013 0
105 -972 -987 0
106 -823 -891 0
106 -850 -864 0
106 -823 -932 0
106 -850 -905 0
106 -823 -973 0
106 -850 -946 0
106 -823 -1014 0
106 -850 -987 0
106 -864 -932 0
106 -891 -905 0
106 -864 -973 0
106 -891 -946 0
106 -864 -1014 0
106 -891 -987 0
106 -905 -973 0
106 -932 -946 0
106 -905 -1014 0
106 -932 -987 0
106 -946 -1014 0
106 -973 -987 0
107 -823 -892 0
107 -851 -864 0
107 -823 -933 0
107 -851 -905 0
107 -823 -974 0
107 -851 -946 0
107 -823 -1015 0
107 -851 -987 0
107 -864 -933 0
107 -892 -905 0
107 -864 -974 0
107 -892 -946 0
107 -864 -1015 0
107 -892 -987 0
107 -905 -974 0
107 -933 -946 0
107 -905 -1015 0
107 -933 -987 0
107 -946 -1015 0
107 -974 -987 0
108 -823 -893 0
108 -852 -864 0
108 -823 -934 0
108 -852 -905 0
108 -823 -975 0
108 -852 -946 0
108 -823 -1016 0
108 -852 -987 0
108 -864 -934 0
108 -893 -905 0
108 -864 -975 0
108 -893 -946 0
108 -864 -1016 0
108 -893 -987 0
108 -905 -975 0
108 -934 -946 0
108 -905 -1016 0
108 -934 -987 0
108 -946 -1016 0
108 -975 -987 0
109 -823 -894 0
109 -853 -864 0
109 -823 -935 0
109 -853 -905 0
109 -823 -976 0
109 -853 -946 0
109 -823 -1017 0
109 -853 -987 0
109 -864 -935 0
109 -894 -905 0
109 -864 -976 0
109 -894 -946 0
109 -864 -1017 0
109 -894 -987 0
109 -905 -976 0
109 -935 -946 0
109 -905 -1017 0
109 -935 -987 0
109 -946 -1017 0
109 -976 -987 0
110 -823 -895 0
110 -854 -864 0
110 -823 -936 0
110 -854 -905 0
110 -823 -977 0
110 -854 -946 0
110 -823 -1018 0
110 -854 -987 0
110 -864 -936 0
110 -895 -905 0
110 -864 -977 0
110 -895 -946 0
110 -864 -1018 0
110 -895 -987 0
110 -905 -977 0
110 -936 -946 0
110 -905 -1018 0
110 -936 -987 0
110 -946 -1018 0
110 -977 -987 0
111 -823 -896 0
111 -855 -864 0
111 -823 -937 0
111 -855 -905 0
111 -823 -978 0
111 -855 -946 0
111 -823 -1019 0
111 -855 -987 0
111 -864 -937 0
111 -896 -905 0
111 -864 -978 0
111 -896 -946 0
111 -864 -1019 0
111 -896 -987 0
111 -905 -978 0
111 -937 -946 0
111 -905 -1019 0
111 -937 -987 0
111 -946 -1019 0
111 -978 -987 0
112 -823 -897 0
112 -856 -864 0
112 -823 -938 0
112 -856 -905 0
112 -823 -979 0
112 -856 -946 0
112 -823 -1020 0
112 -856 -987 0
112 -864 -938 0
112 -897 -905 0
112 -864 -979 0
112 -897 -946 0
112 -864 -1020 0
112 -897 -987 0
112 -905 -979 0
112 -938 -946 0
112 -905 -1020 0
112 -938 -987 0
112 -946 -1020 0
112 -979 -987 0
113 -823 -898 0
113 -857 -864 0
113 -823 -939 0
113 -857 -905 0
113 -823 -980 0
113 -857 -946 0
113 -823 -1021 0
113 -857 -987 0
113 -864 -939 0
113 -898 -905 0
113 -864 -980 0
113 -898 -946 0
113 -864 -1021 0
113 -898 -987 0
113 -905 -980 0
113 -939 -946 0
113 -905 -1021 0
113 -939 -987 0
113 -946 -1021 0
113 -980 -987 0
114 -823 -899 0
114 -858 -864 0
114 -823 -940 0
114 -858 -905 0
114 -823 -981 0
114 -858 -946 0
114 -823 -1022 0
114 -858 -987 0
114 -864 -940 0
114 -899 -905 0
114 -864 -981 0
114 -899 -946 0
114 -864 -1022 0
114 -899 -987 0
114 -905 -981 0
114 -940 -946 0
114 -905 -1022 0
114 -940 -987 0
114 -946 -1022 0
114 -981 -987 0
115 -823 -900 0
115 -859 -864 0
115 -823 -941 0
115 -859 -905 0
115 -823 -982 0
115 -859 -946 0
115 -823 -1023 0
115 -859 -987 0
115 -864 -941 0
115 -900 -905 0
115 -864 -982 0
115 -900 -946 0
115 -864 -1023 0
115 -900 -987 0
115 -905 -982 0
115 -941 -946 0
115 -905 -1023 0
115 -941 -987 0
115 -946 -1023 0
115 -982 -987 0
116 -823 -901 0
116 -860 -864 0
116 -823 -942 0
116 -860 -905 0
116 -823 -983 0
116 -860 -946 0
116 -823 -1024 0
116 -860 -987 0
116 -864 -942 0
116 -901 -905 0
116 -864 -983 0
116 -901 -946 0
116 -864 -1024 0
116 -901 -987 0
116 -905 -983 0
116 -942 -946 0
116 -905 -1024 0
116 -942 -987 0
116 -946 -1024 0
116 -983 -987 0
117 -823 -902 0
117 -861 -864 0
117 -823 -943 0
117 -861 -905 0
117 -823 -984 0
117 -861 -946 0
117 -823 -1025 0
117 -861 -987 0
117 -864 -943 0
117 -902 -905 0
117 -864 -984 0
117 -902 -946 0
117 -864 -1025 0
117 -902 -987 0
117 -905 -984 0
117 -943 -946 0
117 -905 -1025 0
117 -943 -987 0
117 -946 -1025 0
117 -984 -987 0
118 -824 -866 0
118 -825 -865 0
118 -824 -907 0
118 -825 -906 0
118 -824 -948 0
118 -825 -947 0
118 -824 -989 0
118 -825 -988 0
118 -865 -907 0
118 -866 -906 0
118 -865 -948 0
118 -866 -947 0
118 -865 -989 0
118 -866 -988 0
118 -906 -948 0
118 -907 -947 0
118 -906 -989 0
118 -907 -988 0
118 -947 -989 0
118 -948 -988 0
119 -824 -867 0
119 -826 -865 0
119 -824 -908 0
119 -826 -906 0
119 -824 -949 0
119 -826 -947 0
119 -824 -990 0
119 -826 -988 0
119 -865 -908 0
119 -867 -906 0
119 -865 -949 0
119 -867 -947 0
119 -865 -990 0
119 -867 -988 0
119 -906 -949 0
119 -908 -947 0
119 -906 -990 0
119 -908 -988 0
119 -947 -990 0
119 -949 -988 0
120 -824 -868 0
120 -827 -865 0
120 -824 -909 0
120 -827 -906 0
120 -824 -950 0
120 -827 -947 0
120 -824 -991 0
120 -827 -988 0
120 -865 -909 0
120 -868 -906 0
120 -865 -950 0
120 -868 -947 0
120 -865 -991 0
120 -868 -988 0
120 -906 -950 0
120 -909 -947 0
120 -906 -991 0
120 -909 -988 0
120 -947 -991 0
120 -950 -988 0
121 -824 -869 0
121 -828 -865 0
121 -824 -910 0
121 -828 -906 0
121 -824 -951 0
121 -828 -947 0
121 -824 -992 0
121 -828 -988 0
121 -865 -910 0
121 -869 -906 0
121 -865 -951 0
121 -869 -947 0
121 -865 -992 0
121 -869 -988 0
121 -906 -951 0
121 -910 -947 0
121 -906 -992 0
121 -910 -988 0
121 -947 -992 0
121 -951 -988 0
122 -824 -870 0
122 -829 -865 0
122 -824 -911 0
122 -829 -906 0
122 -824 -952 0
122 -829 -947 0
122 -824 -993 0
122 -829 -988 0
122 -865 -911 0
122 -870 -906 0
122 -865 -952 0
122 -870 -947 0
122 -865 -993 0
122 -870 -988 0
122 -906 -952 0
122 -911 -947 0
122 -906 -993 0
122 -911 -988 0
122 -947 -993 0
122 -952 -988 0
123 -824 -871 0
123 -830 -865 0
123 -824 -912 0
123 -830 -906 0
123 -824 -953 0
123 -830 -947 0
123 -824 -994 0
123 -830 -988 0
123 -865 -912 0
123 -871 -906 0
123 -865 -953 0
123 -871 -947 0
123 -865 -994 0
123 -871 -988 0
123 -906 -953 0
123 -912 -947 0
123 -906 -994 0
123 -912 -988 0
123 -947 -994 0
123 -953 -988 0
124 -824 -872 0
124 -831 -865 0
124 -824 -913 0
124 -831 -906 0
124 -824 -954 0
124 -831 -947 0
124 -824 -995 0
124 -831 -988 0
124 -865 -913 0
124 -872 -906 0
124 -865 -954 0
124 -872 -947 0
124 -865 -995 0
124 -872 -988 0
124 -906 -954 0
124 -913 -947 0
124 -906 -995 0
124 -913 -988 0
124 -947 -995 0
124 -954 -988 0
125 -824 -873 0
125 -832 -865 0
125 -824 -914 0
125 -832 -906 0
125 -824 -955 0
125 -832 -947 0
125 -824 -996 0
125 -832 -988 0
125 -865 -914 0
125 -873 -906 0
125 -865 -955 0
125 -873 -947 0
125 -865 -996 0
125 -873 -988 0
125 -906 -955 0
125 -914 -947 0
125 -906 -996 0
125 -914 -988 0
125 -947 -996 0
125 -955 -988 0
126 -824 -874 0
126 -833 -865 0
126 -824 -915 0
126 -833 -906 0
126 -824 -956 0
126 -833 -947 0
126 -824 -997 0
126 -833 -988 0
126 -865 -915 0
126 -874 -906 0
126 -865 -956 0
126 -874 -947 0
126 -865 -997 0
126 -874 -988 0
126 -906 -956 0
126 -915 -947 0
126 -906 -997 0
126 -915 -988 0
126 -947 -997 0
126 -956 -988 0
127 -824 -875 0
127 -834 -865 0
127 -824 -916 0
127 -834 -906 0
127 -824 -957 0
127 -834 -947 0
127 -824 -998 0
127 -834 -988 0
127 -865 -916 0
127 -875 -906 0
127 -865 -957 0
127 -875 -947 0
127 -865 -998 0
127 -875 -988 0
127 -906 -957 0
127 -916 -947 0
127 -906 -998 0
127 -916 -988 0
127 -947 -998 0
127 -957 -988 0
128 -824 -876 0
128 -835 -865 0
128 -824 -917 0
128 -835 -906 0
128 -824 -958 0
128 -835 -947 0
128 -824 -999 0
128 -835 -988 0
128 -865 -917 0
128 -876 -906 0
128 -865 -958 0
128 -876 -947 0
128 -865 -999 0
128 -876 -988 0
128 -906 -958 0
128 -917 -947 0
128 -906 -999 0
128 -917 -988 0
128 -947 -999 0
128 -958 -988 0
129 -824 -877 0
129 -836 -865 0
129 -824 -918 0
129 -836 -906 0
129 -824 -959 0
129 -836 -947 0
129 -824 -1000 0
129 -836 -988 0
129 -865 -918 0
129 -877 -906 0
129 -865 -959 0
129 -877 -947 0
129 -865 -1000 0
129 -877 -988 0
129 -906 -959 0
129 -918 -947 0
129 -906 -1000 0
129 -918 -988 0
129 -947 -1000 0
129 -959 -988 0
130 -824 -878 0
130 -837 -865 0
130 -824 -919 0
130 -837 -906 0
130 -824 -960 0
130 -837 -947 0
130 -824 -1001 0
130 -837 -988 0
130 -865 -919 0
130 -878 -906 0
130 -865 -960 0
130 -878 -947 0
130 -865 -1001 0
130 -878 -988 0
130 -906 -960 0
130 -919 -947 0
130 -906 -1001 0
130 -919 -988 0
130 -947 -1001 0
130 -960 -988 0
131 -824 -879 0
131 -838 -865 0
131 -824 -920 0
131 -838 -906 0
131 -824 -961 0
131 -838 -947 0
131 -824 -1002 0
131 -838 -988 0
131 -865 -920 0
131 -879 -906 0
131 -865 -961 0
131 -879 -947 0
131 -865 -1002 0
131 -879 -988 0
131 -906 -961 0
131 -920 -947 0
131 -906 -1002 0
131 -920 -988 0
131 -947 -1002 0
131 -961 -988 0
132 -824 -880 0
132 -839 -865 0
132 -824 -921 0
132 -839 -906 0
132 -824 -962 0
132 -839 -947 0
132 -824 -1003 0
132 -839 -988 0
132 -865 -921 0
132 -880 -906 0
132 -865 -962 0
132 -880 -947 0
132 -865 -1003 0
132 -880 -988 0
132 -906 -962 0
132 -921 -947 0
132 -906 -1003 0
132 -921 -988 0
132 -947 -1003 0
132 -962 -988 0
133 -824 -881 0
133 -840 -865 0
133 -824 -922 0
133 -840 -906 0
133 -824 -963 0
133 -840 -947 0
133 -824 -1004 0
133 -840 -988 0
133 -865 -922 0
133 -881 -906 0
133 -865 -963 0
133 -881 -947 0
133 -865 -1004 0
133 -881 -988 0
133 -906 -963 0
133 -922 -947 0
133 -906 -1004 0
133 -922 -988 0
133 -947 -1004 0
133 -963 -988 0
134 -824 -882 0
134 -841 -865 0
134 -824 -923 0
134 -841 -906 0
134 -824 -964 0
134 -841 -947 0
134 -824 -1005 0
134 -841 -988 0
134 -865 -923 0
134 -882 -906 0
134 -865 -964 0
134 -882 -947 0
134 -865 -1005 0
134 -882 -988 0
134 -906 -964 0
134 -923 -947 0
134 -906 -1005 0
134 -923 -988 0
134 -947 -1005 0
134 -964 -988 0
135 -824 -883 0
135 -842 -865 0
135 -824 -924 0
135 -842 -906 0
135 -824 -965 0
135 -842 -947 0
135 -824 -1006 0
135 -842 -988 0
135 -865 -924 0
135 -883 -906 0
135 -865 -965 0
135 -883 -947 0
135 -865 -1006 0
135 -883 -988 0
135 -906 -965 0
135 -924 -947 0
135 -906 -1006 0
135 -924 -988 0
135 -947 -1006 0
135 -965 -988 0
136 -824 -884 0
136 -843 -865 0
136 -824 -925 0
136 -843 -906 0
136 -824 -966 0
136 -843 -947 0
136 -824 -1007 0
136 -843 -988 0
136 -865 -925 0
136 -884 -906 0
136 -865 -966 0
136 -884 -947 0
136 -865 -1007 0
136 -884 -988 0
136 -906 -966 0
136 -925 -947 0
136 -906 -1007 0
136 -925 -988 0
136 -947 -1007 0
136 -966 -988 0
137 -824 -885 0
137 -844 -865 0
137 -824 -926 0
137 -844 -906 0
137 -824 -967 0
137 -844 -947 0
137 -824 -1008 0
137 -844 -988 0
137 -865 -926 0
137 -885 -906 0
137 -865 -967 0
137 -885 -947 0
137 -865 -1008 0
137 -885 -988 0
137 -906 -967 0
137 -926 -947 0
137 -906 -1008 0
137 -926 -988 0
137 -947 -1008 0
137 -967 -988 0
138 -824 -886 0
138 -845 -865 0
138 -824 -927 0
138 -845 -906 0
138 -824 -968 0
138 -845 -947 0
138 -824 -1009 0
138 -845 -988 0
138 -865 -927 0
138 -886 -906 0
138 -865 -968 0
138 -886 -947 0
138 -865 -1009 0
138 -886 -988 0
138 -906 -968 0
138 -927 -947 0
138 -906 -1009 0
138 -927 -988 0
138 -947 -1009 0
138 -968 -988 0
139 -824 -887 0
139 -846 -865 0
139 -824 -928 0
139 -846 -906 0
139 -824 -969 0
139 -846 -947 0
139 -824 -1010 0
139 -846 -988 0
139 -865 -928 0
139 -887 -906 0
139 -865 -969 0
139 -887 -947 0
139 -865 -1010 0
139 -887 -988 0
139 -906 -969 0
139 -928 -947 0
139 -906 -1010 0
139 -928 -988 0
139 -947 -1010 0
139 -969 -988 0
140 -824 -888 0
140 -847 -865 0
140 -824 -929 0
140 -847 -906 0
140 -824 -970 0
140 -847 -947 0
140 -824 -1011 0
140 -847 -988 0
140 -865 -929 0
140 -888 -906 0
140 -865 -970 0
140 -888 -947 0
140 -865 -1011 0
140 -888 -988 0
140 -906 -970 0
140 -929 -947 0
140 -906 -1011 0
140 -929 -988 0
140 -947 -1011 0
140 -970 -988 0
141 -824 -889 0
141 -848 -865 0
141 -824 -930 0
141 -848 -906 0
141 -824 -971 0
141 -848 -947 0
141 -824 -1012 0
141 -848 -988 0
141 -865 -930 0
141 -889 -906 0
141 -865 -971 0
141 -889 -947 0
141 -865 -1012 0
141 -889 -988 0
141 -906 -971 0
141 -930 -947 0
141 -906 -1012 0
141 -930 -988 0
141 -947 -1012 0
141 -971 -988 0
142 -824 -890 0
142 -849 -865 0
142 -824 -931 0
142 -849 -906 0
142 -824 -972 0
142 -849 -947 0
142 -824 -1013 0
142 -849 -988 0
142 -865 -931 0
142 -890 -906 0
142 -865 -972 0
142 -890 -947 0
142 -865 -1013 0
142 -890 -988 0
142 -906 -972 0
142 -931 -947 0
142 -906 -1013 0
142 -931 -988 0
142 -947 -1013 0
142 -972 -988 0
143 -824 -891 0
143 -850 -865 0
143 -824 -932 0
143 -850 -906 0
143 -824 -973 0
143 -850 -947 0
143 -824 -1014 0
143 -850 -988 0
143 -865 -932 0
143 -891 -906 0
143 -865 -973 0
143 -891 -947 0
143 -865 -1014 0
143 -891 -988 0
143 -906 -973 0
143 -932 -947 0
143 -906 -1014 0
143 -932 -988 0
143 -947 -1014 0
143 -973 -988 0
144 -824 -892 0
144 -851 -865 0
144 -824 -933 0
144 -851 -906 0
144 -824 -974 0
144 -851 -947 0
144 -824 -1015 0
144 -851 -988 0
144 -865 -933 0
144 -892 -906 0
144 -865 -974 0
144 -892 -947 0
144 -865 -1015 0
144 -892 -988 0
144 -906 -974 0
144 -933 -947 0
144 -906 -1015 0
144 -933 -988 0
144 -947 -1015 0
144 -974 -988 0
145 -824 -893 0
145 -852 -865 0
145 -824 -934 0
145 -852 -906 0
145 -824 -975 0
145 -852 -947 0
145 -824 -1016 0
145 -852 -988 0
145 -865 -934 0
145 -893 -906 0
145 -865 -975 0
145 -893 -947 0
145 -865 -1016 0
145 -893 -988 0
145 -906 -975 0
145 -934 -947 0
145 -906 -1016 0
145 -934 -988 0
145 -947 -1016 0
145 -975 -988 0
146 -824 -894 0
146 -853 -865 0
146 -824 -935 0
146 -853 -906 0
146 -824 -976 0
146 -853 -947 0
146 -824 -1017 0
146 -853 -988 0
146 -865 -935 0
146 -894 -906 0
146 -865 -976 0
146 -894 -947 0
146 -865 -1017 0
146 -894 -988 0
146 -906 -976 0
146 -935 -947 0
146 -906 -1017 0
146 -935 -988 0
146 -947 -1017 0
146 -976 -988 0
147 -824 -895 0
147 -854 -865 0
147 -824 -936 0
147 -854 -906 0
147 -824 -977 0
147 -854 -947 0
147 -824 -1018 0
147 -854 -988 0
147 -865 -936 0
147 -895 -906 0
147 -865 -977 0
147 -895 -947 0
147 -865 -1018 0
147 -895 -988 0
147 -906 -977 0
147 -936 -947 0
147 -906 -1018 0
147 -936 -988 0
147 -947 -1018 0
147 -977 -988 0
148 -824 -896 0
148 -855 -865 0
148 -824 -937 0
148 -855 -906 0
148 -824 -978 0
148 -855 -947 0
148 -824 -1019 0
148 -855 -988 0
148 -865 -937 0
148 -896 -906 0
148 -865 -978 0
148 -896 -947 0
148 -865 -1019 0
148 -896 -988 0
148 -906 -978 0
148 -937 -947 0
148 -906 -1019 0
148 -937 -988 0
148 -947 -1019 0
148 -978 -988 0
149 -824 -897 0
149 -856 -865 0
149 -824 -938 0
149 -856 -906 0
149 -824 -979 0
149 -856 -947 0
149 -824 -1020 0
149 -856 -988 0
149 -865 -938 0
149 -897 -906 0
149 -865 -979 0
149 -897 -947 0
149 -865 -1020 0
149 -897 -988 0
149 -906 -979 0
149 -938 -947 0
149 -906 -1020 0
149 -938 -988 0
149 -947 -1020 0
149 -979 -988 0
150 -824 -898 0
150 -857 -865 0
150 -824 -939 0
150 -857 -906 0
150 -824 -980 0
150 -857 -947 0
150 -824 -1021 0
150 -857 -988 0
150 -865 -939 0
150 -898 -906 0
150 -865 -980 0
150 -898 -947 0
150 -865 -1021 0
150 -898 -988 0
150 -906 -980 0
150 -939 -947 0
150 -906 -1021 0
150 -939 -988 0
150 -947 -1021 0
150 -980 -988 0
151 -824 -899 0
151 -858 -865 0
151 -824 -940 0
151 -858 -906 0
151 -824 -981 0
151 -858 -947 0
151 -824 -1022 0
151 -858 -988 0
151 -865 -940 0
151 -899 -906 0
151 -865 -981 0
151 -899 -947 0
151 -865 -1022 0
151 -899 -988 0
151 -906 -981 0
151 -940 -947 0
151 -906 -1022 0
151 -940 -988 0
151 -947 -1022 0
151 -981 -988 0
152 -824 -900 0
152 -859 -865 0
152 -824 -941 0
152 -859 -906 0
152 -824 -982 0
152 -859 -947 0
152 -824 -1023 0
152 -859 -988 0
152 -865 -941 0
152 -900 -906 0
152 -865 -982 0
152 -900 -947 0
152 -865 -1023 0
152 -900 -988 0
152 -906 -982 0
152 -941 -947 0
152 -906 -1023 0
152 -941 -988 0
152 -947 -1023 0
152 -982 -988 0
153 -824 -901 0
153 -860 -865 0
153 -824 -942 0
153 -860 -906 0
153 -824 -983 0
153 -860 -947 0
153 -824 -1024 0
153 -860 -988 0
153 -865 -942 0
153 -901 -906 0
153 -865 -983 0
153 -901 -947 0
153 -865 -1024 0
153 -901 -988 0
153 -906 -983 0
153 -942 -947 0
153 -906 -1024 0
153 -942 -988 0
153 -947 -1024 0
153 -983 -988 0
154 -824 -902 0
154 -861 -865 0
154 -824 -943 0
154 -861 -906 0
154 -824 -984 0
154 -861 -947 0
154 -824 -1025 0
154 -861 -988 0
154 -865 -943 0
154 -902 -906 0
154 -865 -984 0
154 -902 -947 0
154 -865 -1025 0
154 -902 -988 0
154 -906 -984 0
154 -943 -947 0
154 -906 -1025 0
154 -943 -988 0
154 -947 -1025 0
154 -984 -988 0
155 -825 -867 0
155 -826 -866 0
155 -825 -908 0
155 -826 -907 0
155 -825 -949 0
155 -826 -948 0
155 -825 -990 0
155 -826 -989 0
155 -866 -908 0
155 -867 -907 0
155 -866 -949 0
155 -867 -948 0
155 -866 -990 0
155 -867 -989 0
155 -907 -949 0
155 -908 -948 0
155 -907 -990 0
155 -908 -989 0
155 -948 -990 0
155 -949 -989 0
156 -825 -868 0
156 -827 -866 0
156 -825 -909 0
156 -827 -907 0
156 -825 -950 0
156 -827 -948 0
156 -825 -991 0
156 -827 -989 0
156 -866 -909 0
156 -868 -907 0
156 -866 -950 0
156 -868 -948 0
156 -866 -991 0
156 -868 -989 0
156 -907 -950 0
156 -909 -948 0
156 -907 -991 0
156 -909 -989 0
156 -948 -991 0
156 -950 -989 0
157 -825 -869 0
157 -828 -866 0
157 -825 -910 0
157 -828 -907 0
157 -825 -951 0
157 -828 -948 0
157 -825 -992 0
157 -828 -989 0
157 -866 -910 0
157 -869 -907 0
157 -866 -951 0
157 -869 -948 0
157 -866 -992 0
157 -869 -989 0
157 -907 -951 0
157 -910 -948 0
157 -907 -992 0
157 -910 -989 0
157 -948 -992 0
157 -951 -989 0
158 -825 -870 0
158 -829 -866 0
158 -825 -911 0
158 -829 -907 0
158 -825 -952 0
158 -829 -948 0
158 -825 -993 0
158 -829 -989 0
158 -866 -911 0
158 -870 -907 0
158 -866 -952 0
158 -870 -948 0
158 -866 -993 0
158 -870 -989 0
158 -907 -952 0
158 -911 -948 0
158 -907 -993 0
158 -911 -989 0
158 -948 -993 0
158 -952 -989 0
159 -825 -871 0
159 -830 -866 0
159 -825 -912 0
159 -830 -907 0
159 -825 -953 0
159 -830 -948 0
159 -825 -994 0
159 -830 -989 0
159 -866 -912 0
159 -871 -907 0
159 -866 -953 0
159 -871 -948 0
159 -866 -994 0
159 -871 -989 0
159 -907 -953 0
159 -912 -948 0
159 -907 -994 0
159 -912 -989 0
159 -948 -994 0
159 -953 -989 0
160 -825 -872 0
160 -831 -866 0
160 -825 -913 0
160 -831 -907 0
160 -825 -954 0
160 -831 -948 0
160 -825 -995 0
160 -831 -989 0
160 -866 -913 0
160 -872 -907 0
160 -866 -954 0
160 -872 -948 0
160 -866 -995 0
160 -872 -989 0
160 -907 -954 0
160 -913 -948 0
160 -907 -995 0
160 -913 -989 0
160 -948 -995 0
160 -954 -989 0
161 -825 -873 0
161 -832 -866 0
161 -825 -914 0
161 -832 -907 0
161 -825 -955 0
161 -832 -948 0
161 -825 -996 0
161 -832 -989 0
161 -866 -914 0
161 -873 -907 0
161 -866 -955 0
161 -873 -948 0
161 -866 -996 0
161 -873 -989 0
161 -907 -955 0
161 -914 -948 0
161 -907 -996 0
161 -914 -989 0
161 -948 -996 0
161 -955 -989 0
162 -825 -874 0
162 -833 -866 0
162 -825 -915 0
162 -833 -907 0
162 -825 -956 0
162 -833 -948 0
162 -825 -997 0
162 -833 -989 0
162 -866 -915 0
162 -874 -907 0
162 -866 -956 0
162 -874 -948 0
162 -866 -997 0
162 -874 -989 0
162 -907 -956 0
162 -915 -948 0
162 -907 -997 0
162 -915 -989 0
162 -948 -997 0
162 -956 -989 0
163 -825 -875 0
163 -834 -866 0
163 -825 -916 0
163 -834 -907 0
163 -825 -957 0
163 -834 -948 0
163 -825 -998 0
163 -834 -989 0
163 -866 -916 0
163 -875 -907 0
163 -866 -957 0
163 -875 -948 0
163 -866 -998 0
163 -875 -989 0
163 -907 -957 0
163 -916 -948 0
163 -907 -998 0
163 -916 -989 0
163 -948 -998 0
163 -957 -989 0
164 -825 -876 0
164 -835 -866 0
164 -825 -917 0
164 -835 -907 0
164 -825 -958 0
164 -835 -948 0
164 -825 -999 0
164 -835 -989 0
164 -866 -917 0
164 -876 -907 0
164 -866 -958 0
164 -876 -948 0
164 -866 -999 0
164 -876 -989 0
164 -907 -958 0
164 -917 -948 0
164 -907 -999 0
164 -917 -989 0
164 -948 -999 0
164 -958 -989 0
165 -825 -877 0
165 -836 -866 0
165 -825 -918 0
165 -836 -907 0
165 -825 -959 0
165 -836 -948 0
165 -825 -1000 0
165 -836 -989 0
165 -866 -918 0
165 -877 -907 0
165 -866 -959 0
165 -877 -948 0
165 -866 -1000 0
165 -877 -989 0
165 -907 -959 0
165 -918 -948 0
165 -907 -1000 0
165 -918 -989 0
165 -948 -1000 0
165 -959 -989 0
166 -825 -878 0
166 -837 -866 0
166 -825 -919 0
166 -837 -907 0
166 -825 -960 0
166 -837 -948 0
166 -825 -1001 0
166 -837 -989 0
166 -866 -919 0
166 -878 -907 0
166 -866 -960 0
166 -878 -948 0
166 -866 -1001 0
166 -878 -989 0
166 -907 -960 0
166 -919 -948 0
166 -907 -1001 0
166 -919 -989 0
166 -948 -1001 0
166 -960 -989 0
167 -825 -879 0
167 -838 -866 0
167 -825 -920 0
167 -838 -907 0
167 -825 -961 0
167 -838 -948 0
167 -825 -1002 0
167 -838 -989 0
167 -866 -920 0
167 -879 -907 0
167 -866 -961 0
167 -879 -948 0
167 -866 -1002 0
167 -879 -989 0
167 -907 -961 0
167 -920 -948 0
167 -907 -1002 0
167 -920 -989 0
167 -948 -1002 0
167 -961 -989 0
168 -825 -880 0
168 -839 -866 0
168 -825 -921 0
168 -839 -907 0
168 -825 -962 0
168 -839 -948 0
168 -825 -1003 0
168 -839 -989 0
168 -866 -921 0
168 -880 -907 0
168 -866 -962 0
168 -880 -948 0
168 -866 -1003 0
168 -880 -989 0
168 -907 -962 0
168 -921 -948 0
168 -907 -1003 0
168 -921 -989 0
168 -948 -1003 0
168 -962 -989 0
169 -825 -881 0
169 -840 -866 0
169 -825 -922 0
169 -840 -907 0
169 -825 -963 0
169 -840 -948 0
169 -825 -1004 0
169 -840 -989 0
169 -866 -922 0
169 -881 -907 0
169 -866 -963 0
169 -881 -948 0
169 -866 -1004 0
169 -881 -989 0
169 -907 -963 0
169 -922 -948 0
169 -907 -1004 0
169 -922 -989 0
169 -948 -1004 0
169 -963 -989 0
170 -825 -882 0
170 -841 -866 0
170 -825 -923 0
170 -841 -907 0
170 -825 -964 0
170 -841 -948 0
170 -825 -1005 0
170 -841 -989 0
170 -866 -923 0
170 -882 -907 0
170 -866 -964 0
170 -882 -948 0
170 -866 -1005 0
170 -882 -989 0
170 -907 -964 0
170 -923 -948 0
170 -907 -1005 0
170 -923 -989 0
170 -948 -1005 0
170 -964 -989 0
171 -825 -883 0
171 -842 -866 0
171 -825 -924 0
171 -842 -907 0
171 -825 -965 0
171 -842 -948 0
171 -825 -1006 0
171 -842 -989 0
171 -866 -924 0
171 -883 -907 0
171 -866 -965 0
171 -883 -948 0
171 -866 -1006 0
171 -883 -989 0
171 -907 -965 0
171 -924 -948 0
171 -907 -1006 0
171 -924 -989 0
171 -948 -1006 0
171 -965 -989 0
172 -825 -884 0
172 -843 -866 0
172 -825 -925 0
172 -843 -907 0
172 -825 -966 0
172 -843 -948 0
172 -825 -1007 0
172 -843 -989 0
172 -866 -925 0
172 -884 -907 0
172 -866 -966 0
172 -884 -948 0
172 -866 -1007 0
172 -884 -989 0
172 -907 -966 0
172 -925 -948 0
172 -907 -1007 0
172 -925 -989 0
172 -948 -1007 0
172 -966 -989 0
173 -825 -885 0
173 -844 -866 0
173 -825 -926 0
173 -844 -907 0
173 -825 -967 0
173 -844 -948 0
173 -825 -1008 0
173 -844 -989 0
173 -866 -926 0
173 -885 -907 0
173 -866 -967 0
173 -885 -948 0
173 -866 -1008 0
173 -885 -989 0
173 -907 -967 0
173 -926 -948 0
173 -907 -1008 0
173 -926 -989 0
173 -948 -1008 0
173 -967 -989 0
174 -825 -886 0
174 -845 -866 0
174 -825 -927 0
174 -845 -907 0
174 -825 -968 0
174 -845 -948 0
174 -825 -1009 0
174 -845 -989 0
174 -866 -927 0
174 -886 -907 0
174 -866 -968 0
174 -886 -948 0
174 -866 -1009 0
174 -886 -989 0
174 -907 -968 0
174 -927 -948 0
174 -907 -1009 0
174 -927 -989 0
174 -948 -1009 0
174 -968 -989 0
175 -825 -887 0
175 -846 -866 0
175 -825 -928 0
175 -846 -907 0
175 -825 -969 0
175 -846 -948 0
175 -825 -1010 0
175 -846 -989 0
175 -866 -928 0
175 -887 -907 0
175 -866 -969 0
175 -887 -948 0
175 -866 -1010 0
175 -887 -989 0
175 -907 -969 0
175 -928 -948 0
175 -907 -1010 0
175 -928 -989 0
175 -948 -1010 0
175 -969 -989 0
176 -825 -888 0
176 -847 -866 0
176 -825 -929 0
176 -847 -907 0
176 -825 -970 0
176 -847 -948 0
176 -825 -1011 0
176 -847 -989 0
176 -866 -929 0
176 -888 -907 0
176 -866 -970 0
176 -888 -948 0
176 -866 -1011 0
176 -888 -989 0
176 -907 -970 0
176 -929 -948 0
176 -907 -1011 0
176 -929 -989 0
176 -948 -1011 0
176 -970 -989 0
177 -825 -889 0
177 -848 -866 0
177 -825 -930 0
177 -848 -907 0
177 -825 -971 0
177 -848 -948 0
177 -825 -1012 0
177 -848 -989 0
177 -866 -930 0
177 -889 -907 0
177 -866 -971 0
177 -889 -948 0
177 -866 -1012 0
177 -889 -989 0
177 -907 -971 0
177 -930 -948 0
177 -907 -1012 0
177 -930 -989 0
177 -948 -1012 0
177 -971 -989 0
178 -825 -890 0
178 -849 -866 0
178 -825 -931 0
178 -849 -907 0
178 -825 -972 0
178 -849 -948 0
178 -825 -1013 0
178 -849 -989 0
178 -866 -931 0
178 -890 -907 0
178 -866 -972 0
178 -890 -948 0
178 -866 -1013 0
178 -890 -989 0
178 -907 -972 0
178 -931 -948 0
178 -907 -1013 0
178 -931 -989 0
178 -948 -1013 0
178 -972 -989 0
179 -825 -891 0
179 -850 -866 0
179 -825 -932 0
179 -850 -907 0
179 -825 -973 0
179 -850 -948 0
179 -825 -1014 0
179 -850 -989 0
179 -866 -932 0
179 -891 -907 0
179 -866 -973 0
179 -891 -948 0
179 -866 -1014 0
179 -891 -989 0
179 -907 -973 0
179 -932 -948 0
179 -907 -1014 0
179 -932 -989 0
179 -948 -1014 0
179 -973 -989 0
180 -825 -892 0
180 -851 -866 0
180 -825 -933 0
180 -851 -907 0
180 -825 -974 0
180 -851 -948 0
180 -825 -1015 0
180 -851 -989 0
180 -866 -933 0
180 -892 -907 0
180 -866 -974 0
180 -892 -948 0
180 -866 -1015 0
180 -892 -989 0
180 -907 -974 0
180 -933 -948 0
180 -907 -1015 0
180 -933 -989 0
180 -948 -1015 0
180 -974 -989 0
181 -825 -893 0
181 -852 -866 0
181 -825 -934 0
181 -852 -907 0
181 -825 -975 0
181 -852 -948 0
181 -825 -1016 0
181 -852 -989 0
181 -866 -934 0
181 -893 -907 0
181 -866 -975 0
181 -893 -948 0
181 -866 -1016 0
181 -893 -989 0
181 -907 -975 0
181 -934 -948 0
181 -907 -1016 0
181 -934 -989 0
181 -948 -1016 0
181 -975 -989 0
182 -825 -894 0
182 -853 -866 0
182 -825 -935 0
182 -853 -907 0
182 -825 -976 0
182 -853 -948 0
182 -825 -1017 0
182 -853 -989 0
182 -866 -935 0
182 -894 -907 0
182 -866 -976 0
182 -894 -948 0
182 -866 -1017 0
182 -894 -989 0
182 -907 -976 0
182 -935 -948 0
182 -907 -1017 0
182 -935 -989 0
182 -948 -1017 0
182 -976 -989 0
183 -825 -895 0
183 -854 -866 0
183 -825 -936 0
183 -854 -907 0
183 -825 -977 0
183 -854 -948 0
183 -825 -1018 0
183 -854 -989 0
183 -866 -936 0
183 -895 -907 0
183 -866 -977 0
183 -895 -948 0
183 -866 -1018 0
183 -895 -989 0
183 -907 -977 0
183 -936 -948 0
183 -907 -1018 0
183 -936 -989 0
183 -948 -1018 0
183 -977 -989 0
184 -825 -896 0
184 -855 -866 0
184 -825 -937 0
184 -855 -907 0
184 -825 -978 0
184 -855 -948 0
184 -825 -1019 0
184 -855 -989 0
184 -866 -937 0
184 -896 -907 0
184 -866 -978 0
184 -896 -948 0
184 -866 -1019 0
184 -896 -989 0
184 -907 -978 0
184 -937 -948 0
184 -907 -1019 0
184 -937 -989 0
184 -948 -1019 0
184 -978 -989 0
185 -825 -897 0
185 -856 -866 0
185 -825 -938 0
185 -856 -907 0
185 -825 -979 0
185 -856 -948 0
185 -825 -1020 0
185 -856 -989 0
185 -866 -938 0
185 -897 -907 0
185 -866 -979 0
185 -897 -948 0
185 -866 -1020 0
185 -897 -989 0
185 -907 -979 0
185 -938 -948 0
185 -907 -1020 0
185 -938 -989 0
185 -948 -1020 0
185 -979 -989 0
186 -825 -898 0
186 -857 -866 0
186 -825 -939 0
186 -857 -907 0
186 -825 -980 0
186 -857 -948 0
186 -825 -1021 0
186 -857 -989 0
186 -866 -939 0
186 -898 -907 0
186 -866 -980 0
186 -898 -948 0
186 -866 -1021 0
186 -898 -989 0
186 -907 -980 0
186 -939 -948 0
186 -907 -1021 0
186 -939 -989 0
186 -948 -1021 0
186 -980 -989 0
187 -825 -899 0
187 -858 -866 0
187 -825 -940 0
187 -858 -907 0
187 -825 -981 0
187 -858 -948 0
187 -825 -1022 0
187 -858 -989 0
187 -866 -940 0
187 -899 -907 0
187 -866 -981 0
187 -899 -948 0
187 -866 -1022 0
187 -899 -989 0
187 -907 -981 0
187 -940 -948 0
187 -907 -1022 0
187 -940 -989 0
187 -948 -1022 0
187 -981 -989 0
188 -825 -900 0
188 -859 -866 0
188 -825 -941 0
188 -859 -907 0
188 -825 -982 0
188 -859 -948 0
188 -825 -1023 0
188 -859 -989 0
188 -866 -941 0
188 -900 -907 0
188 -866 -982 0
188 -900 -948 0
188 -866 -1023 0
188 -900 -989 0
188 -907 -982 0
188 -941 -948 0
188 -907 -1023 0
188 -941 -989 0
188 -948 -1023 0
188 -982 -989 0
189 -825 -901 0
189 -860 -866 0
189 -825 -942 0
189 -860 -907 0
189 -825 -983 0
189 -860 -948 0
189 -825 -1024 0
189 -860 -989 0
189 -866 -942 0
189 -901 -907 0
189 -866 -983 0
189 -901 -948 0
189 -866 -1024 0
189 -901 -989 0
189 -907 -983 0
189 -942 -948 0
189 -907 -1024 0
189 -942 -989 0
189 -948 -1024 0
189 -983 -989 0
190 -825 -902 0
190 -861 -866 0
190 -825 -943 0
190 -861 -907 0
190 -825 -984 0
190 -861 -948 0
190 -825 -1025 0
190 -861 -989 0
190 -866 -943 0
190 -902 -907 0
190 -866 -984 0
190 -902 -948 0
190 -866 -1025 0
190 -902 -989 0
190 -907 -984 0
190 -943 -948 0
190 -907 -1025 0
190 -943 -989 0
190 -948 -1025 0
190 -984 -989 0
191 -826 -868 0
191 -827 -867 0
191 -826 -909 0
191 -827 -908 0
191 -826 -950 0
191 -827 -949 0
191 -826 -991 0
191 -827 -990 0
191 -867 -909 0
191 -868 -908 0
191 -867 -950 0
191 -868 -949 0
191 -867 -991 0
191 -868 -990 0
191 -908 -950 0
191 -909 -949 0
191 -908 -991 0
191 -909 -990 0
191 -949 -991 0
191 -950 -990 0
192 -826 -869 0
192 -828 -867 0
192 -826 -910 0
192 -828 -908 0
192 -826 -951 0
192 -828 -949 0
192 -826 -992 0
192 -828 -990 0
192 -867 -910 0
192 -869 -908 0
192 -867 -951 0
192 -869 -949 0
192 -867 -992 0
192 -869 -990 0
192 -908 -951 0
192 -910 -949 0
192 -908 -992 0
192 -910 -990 0
192 -949 -992 0
192 -951 -990 0
193 -826 -870 0
193 -829 -867 0
193 -826 -911 0
193 -829 -908 0
193 -826 -952 0
193 -829 -949 0
193 -826 -993 0
193 -829 -990 0
193 -867 -911 0
193 -870 -908 0
193 -867 -952 0
193 -870 -949 0
193 -867 -993 0
193 -870 -990 0
193 -908 -952 0
193 -911 -949 0
193 -908 -993 0
193 -911 -990 0
193 -949 -993 0
193 -952 -990 0
194 -826 -871 0
194 -830 -867 0
194 -826 -912 0
194 -830 -908 0
194 -826 -953 0
194 -830 -949 0
194 -826 -994 0
194 -830 -990 0
194 -867 -912 0
194 -871 -908 0
194 -867 -953 0
194 -871 -949 0
194 -867 -994 0
194 -871 -990 0
194 -908 -953 0
194 -912 -949 0
194 -908 -994 0
194 -912 -990 0
194 -949 -994 0
194 -953 -990 0
195 -826 -872 0
195 -831 -867 0
195 -826 -913 0
195 -831 -908 0
195 -826 -954 0
195 -831 -949 0
195 -826 -995 0
195 -831 -990 0
195 -867 -913 0
195 -872 -908 0
195 -867 -954 0
195 -872 -949 0
195 -867 -995 0
195 -872 -990 0
195 -908 -954 0
195 -913 -949 0
195 -908 -995 0
195 -913 -990 0
195 -949 -995 0
195 -954 -990 0
196 -826 -873 0
196 -832 -867 0
196 -826 -914 0
196 -832 -908 0
196 -826 -955 0
196 -832 -949 0
196 -826 -996 0
196 -832 -990 0
196 -867 -914 0
196 -873 -908 0
196 -867 -955 0
196 -873 -949 0
196 -867 -996 0
196 -873 -990 0
196 -908 -955 0
196 -914 -949 0
196 -908 -996 0
196 -914 -990 0
196 -949 -996 0
196 -955 -990 0
197 -826 -874 0
197 -833 -867 0
197 -826 -915 0
197 -833 -908 0
197 -826 -956 0
197 -833 -949 0
197 -826 -997 0
197 -833 -990 0
197 -867 -915 0
197 -874 -908 0
197 -867 -956 0
197 -874 -949 0
197 -867 -997 0
197 -874 -990 0
197 -908 -956 0
197 -915 -949 0
197 -908 -997 0
197 -915 -990 0
197 -949 -997 0
197 -956 -990 0
198 -826 -875 0
198 -834 -867 0
198 -826 -916 0
198 -834 -908 0
198 -826 -957 0
198 -834 -949 0
198 -826 -998 0
198 -834 -990 0
198 -867 -916 0
198 -875 -908 0
198 -867 -957 0
198 -875 -949 0
198 -867 -998 0
198 -875 -990 0
198 -908 -957 0
198 -916 -949 0
198 -908 -998 0
198 -916 -990 0
198 -949 -998 0
198 -957 -990 0
199 -826 -876 0
199 -835 -867 0
199 -826 -917 0
199 -835 -908 0
199 -826 -958 0
199 -835 -949 0
199 -826 -999 0
199 -835 -990 0
199 -867 -917 0
199 -876 -908 0
199 -867 -958 0
199 -876 -949 0
199 -867 -999 0
199 -876 -990 0
199 -908 -958 0
199 -917 -949 0
199 -908 -999 0
199 -917 -990 0
199 -949 -999 0
199 -958 -990 0
200 -826 -877 0
200 -836 -867 0
200 -826 -918 0
200 -836 -908 0
200 -826 -959 0
200 -836 -949 0
200 -826 -1000 0
200 -836 -990 0
200 -867 -918 0
200 -877 -908 0
200 -867 -959 0
200 -877 -949 0
200 -867 -1000 0
200 -877 -990 0
200 -908 -959 0
200 -918 -949 0
200 -908 -1000 0
200 -918 -990 0
200 -949 -1000 0
200 -959 -990 0
201 -826 -878 0
201 -837 -867 0
201 -826 -919 0
201 -837 -908 0
201 -826 -960 0
201 -837 -949 0
201 -826 -1001 0
201 -837 -990 0
201 -867 -919 0
201 -878 -908 0
201 -867 -960 0
201 -878 -949 0
201 -867 -1001 0
201 -878 -990 0
201 -908 -960 0
201 -919 -949 0
201 -908 -1001 0
201 -919 -990 0
201 -949 -1001 0
201 -960 -990 0
202 -826 -879 0
202 -838 -867 0
202 -826 -920 0
202 -838 -908 0
202 -826 -961 0
202 -838 -949 0
202 -826 -1002 0
202 -838 -990 0
202 -867 -920 0
202 -879 -908 0
202 -867 -961 0
202 -879 -949 0
202 -867 -1002 0
202 -879 -990 0
202 -908 -961 0
202 -920 -949 0
202 -908 -1002 0
202 -920 -990 0
202 -949 -1002 0
202 -961 -990 0
203 -826 -880 0
203 -839 -867 0
203 -826 -921 0
203 -839 -908 0
203 -826 -962 0
203 -839 -949 0
203 -826 -1003 0
203 -839 -990 0
203 -867 -921 0
203 -880 -908 0
203 -867 -962 0
203 -880 -949 0
203 -867 -1003 0
203 -880 -990 0
203 -908 -962 0
203 -921 -949 0
203 -908 -1003 0
203 -921 -990 0
203 -949 -1003 0
203 -962 -990 0
204 -826 -881 0
204 -840 -867 0
204 -826 -922 0
204 -840 -908 0
204 -826 -963 0
204 -840 -949 0
204 -826 -1004 0
204 -840 -990 0
204 -867 -922 0
204 -881 -908 0
204 -867 -963 0
204 -881 -949 0
204 -867 -1004 0
204 -881 -990 0
204 -908 -963 0
204 -922 -949 0
204 -908 -1004 0
204 -922 -990 0
204 -949 -1004 0
204 -963 -990 0
205 -826 -882 0
205 -841 -867 0
205 -826 -923 0
205 -841 -908 0
205 -826 -964 0
205 -841 -949 0
205 -826 -1005 0
205 -841 -990 0
205 -867 -923 0
205 -882 -908 0
205 -867 -964 0
205 -882 -949 0
205 -867 -1005 0
205 -882 -990 0
205 -908 -964 0
205 -923 -949 0
205 -908 -1005 0
205 -923 -990 0
205 -949 -1005 0
205 -964 -990 0
206 -826 -883 0
206 -842 -867 0
206 -826 -924 0
206 -842 -908 0
206 -826 -965 0
206 -842 -949 0
206 -826 -1006 0
206 -842 -990 0
206 -867 -924 0
206 -883 -908 0
206 -867 -965 0
206 -883 -949 0
206 -867 -1006 0
206 -883 -990 0
206 -908 -965 0
206 -924 -949 0
206 -908 -1006 0
206 -924 -990 0
206 -949 -1006 0
206 -965 -990 0
207 -826 -884 0
207 -843 -867 0
207 -826 -925 0
207 -843 -908 0
207 -826 -966 0
207 -843 -949 0
207 -826 -1007 0
207 -843 -990 0
207 -867 -925 0
207 -884 -908 0
207 -867 -966 0
207 -884 -949 0
207 -867 -1007 0
207 -884 -990 0
207 -908 -966 0
207 -925 -949 0
207 -908 -1007 0
207 -925 -990 0
207 -949 -1007 0
207 -966 -990 0
208 -826 -885 0
208 -844 -867 0
208 -826 -926 0
208 -844 -908 0
208 -826 -967 0
208 -844 -949 0
208 -826 -1008 0
208 -844 -990 0
208 -867 -926 0
208 -885 -908 0
208 -867 -967 0
208 -885 -949 0
208 -867 -1008 0
208 -885 -990 0
208 -908 -967 0
208 -926 -949 0
208 -908 -1008 0
208 -926 -990 0
208 -949 -1008 0
208 -967 -990 0
209 -826 -886 0
209 -845 -867 0
209 -826 -927 0
209 -845 -908 0
209 -826 -968 0
209 -845 -949 0
209 -826 -1009 0
209 -845 -990 0
209 -867 -927 0
209 -886 -908 0
209 -867 -968 0
209 -886 -949 0
209 -867 -1009 0
209 -886 -990 0
209 -908 -968 0
209 -927 -949 0
209 -908 -1009 0
209 -927 -990 0
209 -949 -1009 0
209 -968 -990 0
210 -826 -887 0
210 -846 -867 0
210 -826 -928 0
210 -846 -908 0
210 -826 -969 0
210 -846 -949 0
210 -826 -1010 0
210 -846 -990 0
210 -867 -928 0
210 -887 -908 0
210 -867 -969 0
210 -887 -949 0
210 -867 -1010 0
210 -887 -990 0
210 -908 -969 0
210 -928 -949 0
210 -908 -1010 0
210 -928 -990 0
210 -949 -1010 0
210 -969 -990 0
211 -826 -888 0
211 -847 -867 0
211 -826 -929 0
211 -847 -908 0
211 -826 -970 0
211 -847 -949 0
211 -826 -1011 0
211 -847 -990 0
211 -867 -929 0
211 -888 -908 0
211 -867 -970 0
211 -888 -949 0
211 -867 -1011 0
211 -888 -990 0
211 -908 -970 0
211 -929 -949 0
211 -908 -1011 0
211 -929 -990 0
211 -949 -1011 0
211 -970 -990 0
212 -826 -889 0
212 -848 -867 0
212 -826 -930 0
212 -848 -908 0
212 -826 -971 0
212 -848 -949 0
212 -826 -1012 0
212 -848 -990 0
212 -867 -930 0
212 -889 -908 0
212 -867 -971 0
212 -889 -949 0
212 -867 -1012 0
212 -889 -990 0
212 -908 -971 0
212 -930 -949 0
212 -908 -1012 0
212 -930 -990 0
212 -949 -1012 0
212 -971 -990 0
213 -826 -890 0
213 -849 -867 0
213 -826 -931 0
213 -849 -908 0
213 -826 -972 0
213 -849 -949 0
213 -826 -1013 0
213 -849 -990 0
213 -867 -931 0
213 -890 -908 0
213 -867 -972 0
213 -890 -949 0
213 -867 -1013 0
213 -890 -990 0
213 -908 -972 0
213 -931 -949 0
213 -908 -1013 0
213 -931 -990 0
213 -949 -1013 0
213 -972 -990 0
214 -826 -891 0
214 -850 -867 0
214 -826 -932 0
214 -850 -908 0
214 -826 -973 0
214 -850 -949 0
214 -826 -1014 0
214 -850 -990 0
214 -867 -932 0
214 -891 -908 0
214 -867 -973 0
214 -891 -949 0
214 -867 -1014 0
214 -891 -990 0
214 -908 -973 0
214 -932 -949 0
214 -908 -1014 0
214 -932 -990 0
214 -949 -1014 0
214 -973 -990 0
215 -826 -892 0
215 -851 -867 0
215 -826 -933 0
215 -851 -908 0
215 -826 -974 0
215 -851 -949 0
215 -826 -1015 0
215 -851 -990 0
215 -867 -933 0
215 -892 -908 0
215 -867 -974 0
215 -892 -949 0
215 -867 -1015 0
215 -892 -990 0
215 -908 -974 0
215 -933 -949 0
215 -908 -1015 0
215 -933 -990 0
215 -949 -1015 0
215 -974 -990 0
216 -826 -893 0
216 -852 -867 0
216 -826 -934 0
216 -852 -908 0
216 -826 -975 0
216 -852 -949 0
216 -826 -1016 0
216 -852 -990 0
216 -867 -934 0
216 -893 -908 0
216 -867 -975 0
216 -893 -949 0
216 -867 -1016 0
216 -893 -990 0
216 -908 -975 0
216 -934 -949 0
216 -908 -1016 0
216 -934 -990 0
216 -949 -1016 0
216 -975 -990 0
217 -826 -894 0
217 -853 -867 0
217 -826 -935 0
217 -853 -908 0
217 -826 -976 0
217 -853 -949 0
217 -826 -1017 0
217 -853 -990 0
217 -867 -935 0
217 -894 -908 0
217 -867 -976 0
217 -894 -949 0
217 -867 -1017 0
217 -894 -990 0
217 -908 -976 0
217 -935 -949 0
217 -908 -1017 0
217 -935 -990 0
217 -949 -1017 0
217 -976 -990 0
218 -826 -895 0
218 -854 -867 0
218 -826 -936 0
218 -854 -908 0
218 -826 -977 0
218 -854 -949 0
218 -826 -1018 0
218 -854 -990 0
218 -867 -936 0
218 -895 -908 0
218 -867 -977 0
218 -895 -949 0
218 -867 -1018 0
218 -895 -990 0
218 -908 -977 0
218 -936 -949 0
218 -908 -1018 0
218 -936 -990 0
218 -949 -1018 0
218 -977 -990 0
219 -826 -896 0
219 -855 -867 0
219 -826 -937 0
219 -855 -908 0
219 -826 -978 0
219 -855 -949 0
219 -826 -1019 0
219 -855 -990 0
219 -867 -937 0
219 -896 -908 0
219 -867 -978 0
219 -896 -949 0
219 -867 -1019 0
219 -896 -990 0
219 -908 -978 0
219 -937 -949 0
219 -908 -1019 0
219 -937 -990 0
219 -949 -1019 0
219 -978 -990 0
220 -826 -897 0
220 -856 -867 0
220 -826 -938 0
220 -856 -908 0
220 -826 -979 0
220 -856 -949 0
220 -826 -1020 0
220 -856 -990 0
220 -867 -938 0
220 -897 -908 0
220 -867 -979 0
220 -897 -949 0
220 -867 -1020 0
220 -897 -990 0
220 -908 -979 0
220 -938 -949 0
220 -908 -1020 0
220 -938 -990 0
220 -949 -1020 0
220 -979 -990 0
221 -826 -898 0
221 -857 -867 0
221 -826 -939 0
221 -857 -908 0
221 -826 -980 0
221 -857 -949 0
221 -826 -1021 0
221 -857 -990 0
221 -867 -939 0
221 -898 -908 0
221 -867 -980 0
221 -898 -949 0
221 -867 -1021 0
221 -898 -990 0
221 -908 -980 0
221 -939 -949 0
221 -908 -1021 0
221 -939 -990 0
221 -949 -1021 0
221 -980 -990 0
222 -826 -899 0
222 -858 -867 0
222 -826 -940 0
222 -858 -908 0
222 -826 -981 0
222 -858 -949 0
222 -826 -1022 0
222 -858 -990 0
222 -867 -940 0
222 -899 -908 0
222 -867 -981 0
222 -899 -949 0
222 -867 -1022 0
222 -899 -990 0
222 -908 -981 0
222 -940 -949 0
222 -908 -1022 0
222 -940 -990 0
222 -949 -1022 0
222 -981 -990 0
223 -826 -900 0
223 -859 -867 0
223 -826 -941 0
223 -859 -908 0
223 -826 -982 0
223 -859 -949 0
223 -826 -1023 0
223 -859 -990 0
223 -867 -941 0
223 -900 -908 0
223 -867 -982 0
223 -900 -949 0
223 -867 -1023 0
223 -900 -990 0
223 -908 -982 0
223 -941 -949 0
223 -908 -1023 0
223 -941 -990 0
223 -949 -1023 0
223 -982 -990 0
224 -826 -901 0
224 -860 -867 0
224 -826 -942 0
224 -860 -908 0
224 -826 -983 0
224 -860 -949 0
224 -826 -1024 0
224 -860 -990 0
224 -867 -942 0
224 -901 -908 0
224 -867 -983 0
224 -901 -949 0
224 -867 -1024 0
224 -901 -990 0
224 -908 -983 0
224 -942 -949 0
224 -908 -1024 0
224 -942 -990 0
224 -949 -1024 0
224 -983 -990 0
225 -826 -902 0
225 -861 -867 0
225 -826 -943 0
225 -861 -908 0
225 -826 -984 0
225 -861 -949 0
225 -826 -1025 0
225 -861 -990 0
225 -867 -943 0
225 -902 -908 0
225 -867 -984 0
225 -902 -949 0
225 -867 -1025 0
225 -902 -990 0
225 -908 -984 0
225 -943 -949 0
225 -908 -1025 0
225 -943 -990 0
225 -949 -1025 0
225 -984 -990 0
226 -827 -869 0
226 -828 -868 0
226 -827 -910 0
226 -828 -909 0
226 -827 -951 0
226 -828 -950 0
226 -827 -992 0
226 -828 -991 0
226 -868 -910 0
226 -869 -909 0
226 -868 -951 0
226 -869 -950 0
226 -868 -992 0
226 -869 -991 0
226 -909 -951 0
226 -910 -950 0
226 -909 -992 0
226 -910 -991 0
226 -950 -992 0
226 -951 -991 0
227 -827 -870 0
227 -829 -868 0
227 -827 -911 0
227 -829 -909 0
227 -827 -952 0
227 -829 -950 0
227 -827 -993 0
227 -829 -991 0
227 -868 -911 0
227 -870 -909 0
227 -868 -952 0
227 -870 -950 0
227 -868 -993 0
227 -870 -991 0
227 -909 -952 0
227 -911 -950 0
227 -909 -993 0
227 -911 -991 0
227 -950 -993 0
227 -952 -991 0
228 -827 -871 0
228 -830 -868 0
228 -827 -912 0
228 -830 -909 0
228 -827 -953 0
228 -830 -950 0
228 -827 -994 0
228 -830 -991 0
228 -868 -912 0
228 -871 -909 0
228 -868 -953 0
228 -871 -950 0
228 -868 -994 0
228 -871 -991 0
228 -909 -953 0
228 -912 -950 0
228 -909 -994 0
228 -912 -991 0
228 -950 -994 0
228 -953 -991 0
229 -827 -872 0
229 -831 -868 0
229 -827 -913 0
229 -831 -909 0
229 -827 -954 0
229 -831 -950 0
229 -827 -995 0
229 -831 -991 0
229 -868 -913 0
229 -872 -909 0
229 -868 -954 0
229 -872 -950 0
229 -868 -995 0
229 -872 -991 0
229 -909 -954 0
229 -913 -950 0
229 -909 -995 0
229 -913 -991 0
229 -950 -995 0
229 -954 -991 0
230 -827 -873 0
230 -832 -868 0
230 -827 -914 0
230 -832 -909 0
230 -827 -955 0
230 -832 -950 0
230 -827 -996 0
230 -832 -991 0
230 -868 -914 0
230 -873 -909 0
230 -868 -955 0
230 -873 -950 0
230 -868 -996 0
230 -873 -991 0
230 -909 -955 0
230 -914 -950 0
230 -909 -996 0
230 -914 -991 0
230 -950 -996 0
230 -955 -991 0
231 -827 -874 0
231 -833 -868 0
231 -827 -915 0
231 -833 -909 0
231 -827 -956 0
231 -833 -950 0
231 -827 -997 0
231 -833 -991 0
231 -868 -915 0
231 -874 -909 0
231 -868 -956 0
231 -874 -950 0
231 -868 -997 0
231 -874 -991 0
231 -909 -956 0
231 -915 -950 0
231 -909 -997 0
231 -915 -991 0
231 -950 -997 0
231 -956 -991 0
232 -827 -875 0
232 -834 -868 0
232 -827 -916 0
232 -834 -909 0
232 -827 -957 0
232 -834 -950 0
232 -827 -998 0
232 -834 -991 0
232 -868 -916 0
232 -875 -909 0
232 -868 -957 0
232 -875 -950 0
232 -868 -998 0
232 -875 -991 0
232 -909 -957 0
232 -916 -950 0
232 -909 -998 0
232 -916 -991 0
232 -950 -998 0
232 -957 -991 0
233 -827 -876 0
233 -835 -868 0
233 -827 -917 0
233 -835 -909 0
233 -827 -958 0
233 -835 -950 0
233 -827 -999 0
233 -835 -991 0
233 -868 -917 0
233 -876 -909 0
233 -868 -958 0
233 -876 -950 0
233 -868 -999 0
233 -876 -991 0
233 -909 -958 0
233 -917 -950 0
233 -909 -999 0
233 -917 -991 0
233 -950 -999 0
233 -958 -991 0
234 -827 -877 0
234 -836 -868 0
234 -827 -918 0
234 -836 -909 0
234 -827 -959 0
234 -836 -950 0
234 -827 -1000 0
234 -836 -991 0
234 -868 -918 0
234 -877 -909 0
234 -868 -959 0
234 -877 -950 0
234 -868 -1000 0
234 -877 -991 0
234 -909 -959 0
234 -918 -950 0
234 -909 -1000 0
234 -918 -991 0
234 -950 -1000 0
234 -959 -991 0
235 -827 -878 0
235 -837 -868 0
235 -827 -919 0
235 -837 -909 0
235 -827 -960 0
235 -837 -950 0
235 -827 -1001 0
235 -837 -991 0
235 -868 -919 0
235 -878 -909 0
235 -868 -960 0
235 -878 -950 0
235 -868 -1001 0
235 -878 -991 0
235 -909 -960 0
235 -919 -950 0
235 -909 -1001 0
235 -919 -991 0
235 -950 -1001 0
235 -960 -991 0
236 -827 -879 0
236 -838 -868 0
236 -827 -920 0
236 -838 -909 0
236 -827 -961 0
236 -838 -950 0
236 -827 -1002 0
236 -838 -991 0
236 -868 -920 0
236 -879 -909 0
236 -868 -961 0
236 -879 -950 0
236 -868 -1002 0
236 -879 -991 0
236 -909 -961 0
236 -920 -950 0
236 -909 -1002 0
236 -920 -991 0
236 -950 -1002 0
236 -961 -991 0
237 -827 -880 0
237 -839 -868 0
237 -827 -921 0
237 -839 -909 0
237 -827 -962 0
237 -839 -950 0
237 -827 -1003 0
237 -839 -991 0
237 -868 -921 0
237 -880 -909 0
237 -868 -962 0
237 -880 -950 0
237 -868 -1003 0
237 -880 -991 0
237 -909 -962 0
237 -921 -950 0
237 -909 -1003 0
237 -921 -991 0
237 -950 -1003 0
237 -962 -991 0
238 -827 -881 0
238 -840 -868 0
238 -827 -922 0
238 -840 -909 0
238 -827 -963 0
238 -840 -950 0
238 -827 -1004 0
238 -840 -991 0
238 -868 -922 0
238 -881 -909 0
238 -868 -963 0
238 -881 -950 0
238 -868 -1004 0
238 -881 -991 0
238 -909 -963 0
238 -922 -950 0
238 -909 -1004 0
238 -922 -991 0
238 -950 -1004 0
238 -963 -991 0
239 -827 -882 0
239 -841 -868 0
239 -827 -923 0
239 -841 -909 0
239 -827 -964 0
239 -841 -950 0
239 -827 -1005 0
239 -841 -991 0
239 -868 -923 0
239 -882 -909 0
239 -868 -964 0
239 -882 -950 0
239 -868 -1005 0
239 -882 -991 0
239 -909 -964 0
239 -923 -950 0
239 -909 -1005 0
239 -923 -991 0
239 -950 -1005 0
239 -964 -991 0
240 -827 -883 0
240 -842 -868 0
240 -827 -924 0
240 -842 -909 0
240 -827 -965 0
240 -842 -950 0
240 -827 -1006 0
240 -842 -991 0
240 -868 -924 0
240 -883 -909 0
240 -868 -965 0
240 -883 -950 0
240 -868 -1006 0
240 -883 -991 0
240 -909 -965 0
240 -924 -950 0
240 -909 -1006 0
240 -924 -991 0
240 -950 -1006 0
240 -965 -991 0
241 -827 -884 0
241 -843 -868 0
241 -827 -925 0
241 -843 -909 0
241 -827 -966 0
241 -843 -950 0
241 -827 -1007 0
241 -843 -991 0
241 -868 -925 0
241 -884 -909 0
241 -868 -966 0
241 -884 -950 0
241 -868 -1007 0
241 -884 -991 0
241 -909 -966 0
241 -925 -950 0
241 -909 -1007 0
241 -925 -991 0
241 -950 -1007 0
241 -966 -991 0
242 -827 -885 0
242 -844 -868 0
242 -827 -926 0
242 -844 -909 0
242 -827 -967 0
242 -844 -950 0
242 -827 -1008 0
242 -844 -991 0
242 -868 -926 0
242 -885 -909 0
242 -868 -967 0
242 -885 -950 0
242 -868 -1008 0
242 -885 -991 0
242 -909 -967 0
242 -926 -950 0
242 -909 -1008 0
242 -926 -991 0
242 -950 -1008 0
242 -967 -991 0
243 -827 -886 0
243 -845 -868 0
243 -827 -927 0
243 -845 -909 0
243 -827 -968 0
243 -845 -950 0
243 -827 -1009 0
243 -845 -991 0
243 -868 -927 0
243 -886 -909 0
243 -868 -968 0
243 -886 -950 0
243 -868 -1009 0
243 -886 -991 0
243 -909 -968 0
243 -927 -950 0
243 -909 -1009 0
243 -927 -991 0
243 -950 -1009 0
243 -968 -991 0
244 -827 -887 0
244 -846 -868 0
244 -827 -928 0
244 -846 -909 0
244 -827 -969 0
244 -846 -950 0
244 -827 -1010 0
244 -846 -991 0
244 -868 -928 0
244 -887 -909 0
244 -868 -969 0
244 -887 -950 0
244 -868 -1010 0
244 -887 -991 0
244 -909 -969 0
244 -928 -950 0
244 -909 -1010 0
244 -928 -991 0
244 -950 -1010 0
244 -969 -991 0
245 -827 -888 0
245 -847 -868 0
245 -827 -929 0
245 -847 -909 0
245 -827 -970 0
245 -847 -950 0
245 -827 -1011 0
245 -847 -991 0
245 -868 -929 0
245 -888 -909 0
245 -868 -970 0
245 -888 -950 0
245 -868 -1011 0
245 -888 -991 0
245 -909 -970 0
245 -929 -950 0
245 -909 -1011 0
245 -929 -991 0
245 -950 -1011 0
245 -970 -991 0
246 -827 -889 0
246 -848 -868 0
246 -827 -930 0
246 -848 -909 0
246 -827 -971 0
246 -848 -950 0
246 -827 -1012 0
246 -848 -991 0
246 -868 -930 0
246 -889 -909 0
246 -868 -971 0
246 -889 -950 0
246 -868 -1012 0
246 -889 -991 0
246 -909 -971 0
246 -930 -950 0
246 -909 -1012 0
246 -930 -991 0
246 -950 -1012 0
246 -971 -991 0
247 -827 -890 0
247 -849 -868 0
247 -827 -931 0
247 -849 -909 0
247 -827 -972 0
247 -849 -950 0
247 -827 -1013 0
247 -849 -991 0
247 -868 -931 0
247 -890 -909 0
247 -868 -972 0
247 -890 -950 0
247 -868 -1013 0
247 -890 -991 0
247 -909 -972 0
247 -931 -950 0
247 -909 -1013 0
247 -931 -991 0
247 -950 -1013 0
247 -972 -991 0
248 -827 -891 0
248 -850 -868 0
248 -827 -932 0
248 -850 -909 0
248 -827 -973 0
248 -850 -950 0
248 -827 -1014 0
248 -850 -991 0
248 -868 -932 0
248 -891 -909 0
248 -868 -973 0
248 -891 -950 0
248 -868 -1014 0
248 -891 -991 0
248 -909 -973 0
248 -932 -950 0
248 -909 -1014 0
248 -932 -991 0
248 -950 -1014 0
248 -973 -991 0
249 -827 -892 0
249 -851 -868 0
249 -827 -933 0
249 -851 -909 0
249 -827 -974 0
249 -851 -950 0
249 -827 -1015 0
249 -851 -991 0
249 -868 -933 0
249 -892 -909 0
249 -868 -974 0
249 -892 -950 0
249 -868 -1015 0
249 -892 -991 0
249 -909 -974 0
249 -933 -950 0
249 -909 -1015 0
249 -933 -991 0
249 -950 -1015 0
249 -974 -991 0
250 -827 -893 0
250 -852 -868 0
250 -827 -934 0
250 -852 -909 0
250 -827 -975 0
250 -852 -950 0
250 -827 -1016 0
250 -852 -991 0
250 -868 -934 0
250 -893 -909 0
250 -868 -975 0
250 -893 -950 0
250 -868 -1016 0
250 -893 -991 0
250 -909 -975 0
250 -934 -950 0
250 -909 -1016 0
250 -934 -991 0
250 -950 -1016 0
250 -975 -991 0
251 -827 -894 0
251 -853 -868 0
251 -827 -935 0
251 -853 -909 0
251 -827 -976 0
251 -853 -950 0
251 -827 -1017 0
251 -853 -991 0
251 -868 -935 0
251 -894 -909 0
251 -868 -976 0
251 -894 -950 0
251 -868 -1017 0
251 -894 -991 0
251 -909 -976 0
251 -935 -950 0
251 -909 -1017 0
251 -935 -991 0
251 -950 -1017 0
251 -976 -991 0
252 -827 -895 0
252 -854 -868 0
252 -827 -936 0
252 -854 -909 0
252 -827 -977 0
252 -854 -950 0
252 -827 -1018 0
252 -854 -991 0
252 -868 -936 0
252 -895 -909 0
252 -868 -977 0
252 -895 -950 0
252 -868 -1018 0
252 -895 -991 0
252 -909 -977 0
252 -936 -950 0
252 -909 -1018 0
252 -936 -991 0
252 -950 -1018 0
252 -977 -991 0
253 -827 -896 0
253 -855 -868 0
253 -827 -937 0
253 -855 -909 0
253 -827 -978 0
253 -855 -950 0
253 -827 -1019 0
253 -855 -991 0
253 -868 -937 0
253 -896 -909 0
253 -868 -978 0
253 -896 -950 0
253 -868 -1019 0
253 -896 -991 0
253 -909 -978 0
253 -937 -950 0
253 -909 -1019 0
253 -937 -991 0
253 -950 -1019 0
253 -978 -991 0
254 -827 -897 0
254 -856 -868 0
254 -827 -938 0
254 -856 -909 0
254 -827 -979 0
254 -856 -950 0
254 -827 -1020 0
254 -856 -991 0
254 -868 -938 0
254 -897 -909 0
254 -868 -979 0
254 -897 -950 0
254 -868 -1020 0
254 -897 -991 0
254 -909 -979 0
254 -938 -950 0
254 -909 -1020 0
254 -938 -991 0
254 -950 -1020 0
254 -979 -991 0
255 -827 -898 0
255 -857 -868 0
255 -827 -939 0
255 -857 -909 0
255 -827 -980 0
255 -857 -950 0
255 -827 -1021 0
255 -857 -991 0
255 -868 -939 0
255 -898 -909 0
255 -868 -980 0
255 -898 -950 0
255 -868 -1021 0
255 -898 -991 0
255 -909 -980 0
255 -939 -950 0
255 -909 -1021 0
255 -939 -991 0
255 -950 -1021 0
255 -980 -991 0
256 -827 -899 0
256 -858 -868 0
256 -827 -940 0
256 -858 -909 0
256 -827 -981 0
256 -858 -950 0
256 -827 -1022 0
256 -858 -991 0
256 -868 -940 0
256 -899 -909 0
256 -868 -981 0
256 -899 -950 0
256 -868 -1022 0
256 -899 -991 0
256 -909 -981 0
256 -940 -950 0
256 -909 -1022 0
256 -940 -991 0
256 -950 -1022 0
256 -981 -991 0
257 -827 -900 0
257 -859 -868 0
257 -827 -941 0
257 -859 -909 0
257 -827 -982 0
257 -859 -950 0
257 -827 -1023 0
257 -859 -991 0
257 -868 -941 0
257 -900 -909 0
257 -868 -982 0
257 -900 -950 0
257 -868 -1023 0
257 -900 -991 0
257 -909 -982 0
257 -941 -950 0
257 -909 -1023 0
257 -941 -991 0
257 -950 -1023 0
257 -982 -991 0
258 -827 -901 0
258 -860 -868 0
258 -827 -942 0
258 -860 -909 0
258 -827 -983 0
258 -860 -950 0
258 -827 -1024 0
258 -860 -991 0
258 -868 -942 0
258 -901 -909 0
258 -868 -983 0
258 -901 -950 0
258 -868 -1024 0
258 -901 -991 0
258 -909 -983 0
258 -942 -950 0
258 -909 -1024 0
258 -942 -991 0
258 -950 -1024 0
258 -983 -991 0
259 -827 -902 0
259 -861 -868 0
259 -827 -943 0
259 -861 -909 0
259 -827 -984 0
259 -861 -950 0
259 -827 -1025 0
259 -861 -991 0
259 -868 -943 0
259 -902 -909 0
259 -868 -984 0
259 -902 -950 0
259 -868 -1025 0
259 -902 -991 0
259 -909 -984 0
259 -943 -950 0
259 -909 -1025 0
259 -943 -991 0
259 -950 -1025 0
259 -984 -991 0
260 -828 -870 0
260 -829 -869 0
260 -828 -911 0
260 -829 -910 0
260 -828 -952 0
260 -829 -951 0
260 -828 -993 0
260 -829 -992 0
260 -869 -911 0
260 -870 -910 0
260 -869 -952 0
260 -870 -951 0
260 -869 -993 0
260 -870 -992 0
260 -910 -952 0
260 -911 -951 0
260 -910 -993 0
260 -911 -992 0
260 -951 -993 0
260 -952 -992 0
261 -828 -871 0
261 -830 -869 0
261 -828 -912 0
261 -830 -910 0
261 -828 -953 0
261 -830 -951 0
261 -828 -994 0
261 -830 -992 0
261 -869 -912 0
261 -871 -910 0
261 -869 -953 0
261 -871 -951 0
261 -869 -994 0
261 -871 -992 0
261 -910 -953 0
261 -912 -951 0
261 -910 -994 0
261 -912 -992 0
261 -951 -994 0
261 -953 -992 0
262 -828 -872 0
262 -831 -869 0
262 -828 -913 0
262 -831 -910 0
262 -828 -954 0
262 -831 -951 0
262 -828 -995 0
262 -831 -992 0
262 -869 -913 0
262 -872 -910 0
262 -869 -954 0
262 -872 -951 0
262 -869 -995 0
262 -872 -992 0
262 -910 -954 0
262 -913 -951 0
262 -910 -995 0
262 -913 -992 0
262 -951 -995 0
262 -954 -992 0
263 -828 -873 0
263 -832 -869 0
263 -828 -914 0
263 -832 -910 0
263 -828 -955 0
263 -832 -951 0
263 -828 -996 0
263 -832 -992 0
263 -869 -914 0
263 -873 -910 0
263 -869 -955 0
263 -873 -951 0
263 -869 -996 0
263 -873 -992 0
263 -910 -955 0
263 -914 -951 0
263 -910 -996 0
263 -914 -992 0
263 -951 -996 0
263 -955 -992 0
264 -828 -874 0
264 -833 -869 0
264 -828 -915 0
264 -833 -910 0
264 -828 -956 0
264 -833 -951 0
264 -828 -997 0
264 -833 -992 0
264 -869 -915 0
264 -874 -910 0
264 -869 -956 0
264 -874 -951 0
264 -869 -997 0
264 -874 -992 0
264 -910 -956 0
264 -915 -951 0
264 -910 -997 0
264 -915 -992 0
264 -951 -997 0
264 -956 -992 0
265 -828 -875 0
265 -834 -869 0
265 -828 -916 0
265 -834 -910 0
265 -828 -957 0
265 -834 -951 0
265 -828 -998 0
265 -834 -992 0
265 -869 -916 0
265 -875 -910 0
265 -869 -957 0
265 -875 -951 0
265 -869 -998 0
265 -875 -992 0
265 -910 -957 0
265 -916 -951 0
265 -910 -998 0
265 -916 -992 0
265 -951 -998 0
265 -957 -992 0
266 -828 -876 0
266 -835 -869 0
266 -828 -917 0
266 -835 -910 0
266 -828 -958 0
266 -835 -951 0
266 -828 -999 0
266 -835 -992 0
266 -869 -917 0
266 -876 -910 0
266 -869 -958 0
266 -876 -951 0
266 -869 -999 0
266 -876 -992 0
266 -910 -958 0
266 -917 -951 0
266 -910 -999 0
266 -917 -992 0
266 -951 -999 0
266 -958 -992 0
267 -828 -877 0
267 -836 -869 0
267 -828 -918 0
267 -836 -910 0
267 -828 -959 0
267 -836 -951 0
267 -828 -1000 0
267 -836 -992 0
267 -869 -918 0
267 -877 -910 0
267 -869 -959 0
267 -877 -951 0
267 -869 -1000 0
267 -877 -992 0
267 -910 -959 0
267 -918 -951 0
267 -910 -1000 0
267 -918 -992 0
267 -951 -1000 0
267 -959 -992 0
268 -828 -878 0
268 -837 -869 0
268 -828 -919 0
268 -837 -910 0
268 -828 -960 0
268 -837 -951 0
268 -828 -1001 0
268 -837 -992 0
268 -869 -919 0
268 -878 -910 0
268 -869 -960 0
268 -878 -951 0
268 -869 -1001 0
268 -878 -992 0
268 -910 -960 0
268 -919 -951 0
268 -910 -1001 0
268 -919 -992 0
268 -951 -1001 0
268 -960 -992 0
269 -828 -879 0
269 -838 -869 0
269 -828 -920 0
269 -838 -910 0
269 -828 -961 0
269 -838 -951 0
269 -828 -1002 0
269 -838 -992 0
269 -869 -920 0
269 -879 -910 0
269 -869 -961 0
269 -879 -951 0
269 -869 -1002 0
269 -879 -992 0
269 -910 -961 0
269 -920 -951 0
269 -910 -1002 0
269 -920 -992 0
269 -951 -1002 0
269 -961 -992 0
270 -828 -880 0
270 -839 -869 0
270 -828 -921 0
270 -839 -910 0
270 -828 -962 0
270 -839 -951 0
270 -828 -1003 0
270 -839 -992 0
270 -869 -921 0
270 -880 -910 0
270 -869 -962 0
270 -880 -951 0
270 -869 -1003 0
270 -880 -992 0
270 -910 -962 0
270 -921 -951 0
270 -910 -1003 0
270 -921 -992 0
270 -951 -1003 0
270 -962 -992 0
271 -828 -881 0
271 -840 -869 0
271 -828 -922 0
271 -840 -910 0
271 -828 -963 0
271 -840 -951 0
271 -828 -1004 0
271 -840 -992 0
271 -869 -922 0
271 -881 -910 0
271 -869 -963 0
271 -881 -951 0
271 -869 -1004 0
271 -881 -992 0
271 -910 -963 0
271 -922 -951 0
271 -910 -1004 0
271 -922 -992 0
271 -951 -1004 0
271 -963 -992 0
272 -828 -882 0
272 -841 -869 0
272 -828 -923 0
272 -841 -910 0
272 -828 -964 0
272 -841 -951 0
272 -828 -1005 0
272 -841 -992 0
272 -869 -923 0
272 -882 -910 0
272 -869 -964 0
272 -882 -951 0
272 -869 -1005 0
272 -882 -992 0
272 -910 -964 0
272 -923 -951 0
272 -910 -1005 0
272 -923 -992 0
272 -951 -1005 0
272 -964 -992 0
273 -828 -883 0
273 -842 -869 0
273 -828 -924 0
273 -842 -910 0
273 -828 -965 0
273 -842 -951 0
273 -828 -1006 0
273 -842 -992 0
273 -869 -924 0
273 -883 -910 0
273 -869 -965 0
273 -883 -951 0
273 -869 -1006 0
273 -883 -992 0
273 -910 -965 0
273 -924 -951 0
273 -910 -1006 0
273 -924 -992 0
273 -951 -1006 0
273 -965 -992 0
274 -828 -884 0
274 -843 -869 0
274 -828 -925 0
274 -843 -910 0
274 -828 -966 0
274 -843 -951 0
274 -828 -1007 0
274 -843 -992 0
274 -869 -925 0
274 -884 -910 0
274 -869 -966 0
274 -884 -951 0
274 -869 -1007 0
274 -884 -992 0
274 -910 -966 0
274 -925 -951 0
274 -910 -1007 0
274 -925 -992 0
274 -951 -1007 0
274 -966 -992 0
275 -828 -885 0
275 -844 -869 0
275 -828 -926 0
275 -844 -910 0
275 -828 -967 0
275 -844 -951 0
275 -828 -1008 0
275 -844 -992 0
275 -869 -926 0
275 -885 -910 0
275 -869 -967 0
275 -885 -951 0
275 -869 -1008 0
275 -885 -992 0
275 -910 -967 0
275 -926 -951 0
275 -910 -1008 0
275 -926 -992 0
275 -951 -1008 0
275 -967 -992 0
276 -828 -886 0
276 -845 -869 0
276 -828 -927 0
276 -845 -910 0
276 -828 -968 0
276 -845 -951 0
276 -828 -1009 0
276 -845 -992 0
276 -869 -927 0
276 -886 -910 0
276 -869 -968 0
276 -886 -951 0
276 -869 -1009 0
276 -886 -992 0
276 -910 -968 0
276 -927 -951 0
276 -910 -1009 0
276 -927 -992 0
276 -951 -1009 0
276 -968 -992 0
277 -828 -887 0
277 -846 -869 0
277 -828 -928 0
277 -846 -910 0
277 -828 -969 0
277 -846 -951 0
277 -828 -1010 0
277 -846 -992 0
277 -869 -928 0
277 -887 -910 0
277 -869 -969 0
277 -887 -951 0
277 -869 -1010 0
277 -887 -992 0
277 -910 -969 0
277 -928 -951 0
277 -910 -1010 0
277 -928 -992 0
277 -951 -1010 0
277 -969 -992 0
278 -828 -888 0
278 -847 -869 0
278 -828 -929 0
278 -847 -910 0
278 -828 -970 0
278 -847 -951 0
278 -828 -1011 0
278 -847 -992 0
278 -869 -929 0
278 -888 -910 0
278 -869 -970 0
278 -888 -951 0
278 -869 -1011 0
278 -888 -992 0
278 -910 -970 0
278 -929 -951 0
278 -910 -1011 0
278 -929 -992 0
278 -951 -1011 0
278 -970 -992 0
279 -828 -889 0
279 -848 -869 0
279 -828 -930 0
279 -848 -910 0
279 -828 -971 0
279 -848 -951 0
279 -828 -1012 0
279 -848 -992 0
279 -869 -930 0
279 -889 -910 0
279 -869 -971 0
279 -889 -951 0
279 -869 -1012 0
279 -889 -992 0
279 -910 -971 0
279 -930 -951 0
279 -910 -1012 0
279 -930 -992 0
279 -951 -1012 0
279 -971 -992 0
280 -828 -890 0
280 -849 -869 0
280 -828 -931 0
280 -849 -910 0
280 -828 -972 0
280 -849 -951 0
280 -828 -1013 0
280 -849 -992 0
280 -869 -931 0
280 -890 -910 0
280 -869 -972 0
280 -890 -951 0
280 -869 -1013 0
280 -890 -992 0
280 -910 -972 0
280 -931 -951 0
280 -910 -1013 0
280 -931 -992 0
280 -951 -1013 0
280 -972 -992 0
281 -828 -891 0
281 -850 -869 0
281 -828 -932 0
281 -850 -910 0
281 -828 -973 0
281 -850 -951 0
281 -828 -1014 0
281 -850 -992 0
281 -869 -932 0
281 -891 -910 0
281 -869 -973 0
281 -891 -951 0
281 -869 -1014 0
281 -891 -992 0
281 -910 -973 0
281 -932 -951 0
281 -910 -1014 0
281 -932 -992 0
281 -951 -1014 0
281 -973 -992 0
282 -828 -892 0
282 -851 -869 0
282 -828 -933 0
282 -851 -910 0
282 -828 -974 0
282 -851 -951 0
282 -828 -1015 0
282 -851 -992 0
282 -869 -933 0
282 -892 -910 0
282 -869 -974 0
282 -892 -951 0
282 -869 -1015 0
282 -892 -992 0
282 -910 -974 0
282 -933 -951 0
282 -910 -1015 0
282 -933 -992 0
282 -951 -1015 0
282 -974 -992 0
283 -828 -893 0
283 -852 -869 0
283 -828 -934 0
283 -852 -910 0
283 -828 -975 0
283 -852 -951 0
283 -828 -1016 0
283 -852 -992 0
283 -869 -934 0
283 -893 -910 0
283 -869 -975 0
283 -893 -951 0
283 -869 -1016 0
283 -893 -992 0
283 -910 -975 0
283 -934 -951 0
283 -910 -1016 0
283 -934 -992 0
283 -951 -1016 0
283 -975 -992 0
284 -828 -894 0
284 -853 -869 0
284 -828 -935 0
284 -853 -910 0
284 -828 -976 0
284 -853 -951 0
284 -828 -1017 0
284 -853 -992 0
284 -869 -935 0
284 -894 -910 0
284 -869 -976 0
284 -894 -951 0
284 -869 -1017 0
284 -894 -992 0
284 -910 -976 0
284 -935 -951 0
284 -910 -1017 0
284 -935 -992 0
284 -951 -1017 0
284 -976 -992 0
285 -828 -895 0
285 -854 -869 0
285 -828 -936 0
285 -854 -910 0
285 -828 -977 0
285 -854 -951 0
285 -828 -1018 0
285 -854 -992 0
285 -869 -936 0
285 -895 -910 0
285 -869 -977 0
285 -895 -951 0
285 -869 -1018 0
285 -895 -992 0
285 -910 -977 0
285 -936 -951 0
285 -910 -1018 0
285 -936 -992 0
285 -951 -1018 0
285 -977 -992 0
286 -828 -896 0
286 -855 -869 0
286 -828 -937 0
286 -855 -910 0
286 -828 -978 0
286 -855 -951 0
286 -828 -1019 0
286 -855 -992 0
286 -869 -937 0
286 -896 -910 0
286 -869 -978 0
286 -896 -951 0
286 -869 -1019 0
286 -896 -992 0
286 -910 -978 0
286 -937 -951 0
286 -910 -1019 0
286 -937 -992 0
286 -951 -1019 0
286 -978 -992 0
287 -828 -897 0
287 -856 -869 0
287 -828 -938 0
287 -856 -910 0
287 -828 -979 0
287 -856 -951 0
287 -828 -1020 0
287 -856 -992 0
287 -869 -938 0
287 -897 -910 0
287 -869 -979 0
287 -897 -951 0
287 -869 -1020 0
287 -897 -992 0
287 -910 -979 0
287 -938 -951 0
287 -910 -1020 0
287 -938 -992 0
287 -951 -1020 0
287 -979 -992 0
288 -828 -898 0
288 -857 -869 0
288 -828 -939 0
288 -857 -910 0
288 -828 -980 0
288 -857 -951 0
288 -828 -1021 0
288 -857 -992 0
288 -869 -939 0
288 -898 -910 0
288 -869 -980 0
288 -898 -951 0
288 -869 -1021 0
288 -898 -992 0
288 -910 -980 0
288 -939 -951 0
288 -910 -1021 0
288 -939 -992 0
288 -951 -1021 0
288 -980 -992 0
289 -828 -899 0
289 -858 -869 0
289 -828 -940 0
289 -858 -910 0
289 -828 -981 0
289 -858 -951 0
289 -828 -1022 0
289 -858 -992 0
289 -869 -940 0
289 -899 -910 0
289 -869 -981 0
289 -899 -951 0
289 -869 -1022 0
289 -899 -992 0
289 -910 -981 0
289 -940 -951 0
289 -910 -1022 0
289 -940 -992 0
289 -951 -1022 0
289 -981 -992 0
290 -828 -900 0
290 -859 -869 0
290 -828 -941 0
290 -859 -910 0
290 -828 -982 0
290 -859 -951 0
290 -828 -1023 0
290 -859 -992 0
290 -869 -941 0
290 -900 -910 0
290 -869 -982 0
290 -900 -951 0
290 -869 -1023 0
290 -900 -992 0
290 -910 -982 0
290 -941 -951 0
290 -910 -1023 0
290 -941 -992 0
290 -951 -1023 0
290 -982 -992 0
291 -828 -901 0
291 -860 -869 0
291 -828 -942 0
291 -860 -910 0
291 -828 -983 0
291 -860 -951 0
291 -828 -1024 0
291 -860 -992 0
291 -869 -942 0
291 -901 -910 0
291 -869 -983 0
291 -901 -951 0
291 -869 -1024 0
291 -901 -992 0
291 -910 -983 0
291 -942 -951 0
291 -910 -1024 0
291 -942 -992 0
291 -951 -1024 0
291 -983 -992 0
292 -828 -902 0
292 -861 -869 0
292 -828 -943 0
292 -861 -910 0
292 -828 -984 0
292 -861 -951 0
292 -828 -1025 0
292 -861 -992 0
292 -869 -943 0
292 -902 -910 0
292 -869 -984 0
292 -902 -951 0
292 -869 -1025 0
292 -902 -992 0
292 -910 -984 0
292 -943 -951 0
292 -910 -1025 0
292 -943 -992 0
292 -951 -1025 0
292 -984 -992 0
293 -829 -871 0
293 -830 -870 0
293 -829 -912 0
293 -830 -911 0
293 -829 -953 0
293 -830 -952 0
293 -829 -994 0
293 -830 -993 0
293 -870 -912 0
293 -871 -911 0
293 -870 -953 0
293 -871 -952 0
293 -870 -994 0
293 -871 -993 0
293 -911 -953 0
293 -912 -952 0
293 -911 -994 0
293 -912 -993 0
293 -952 -994 0
293 -953 -993 0
294 -829 -872 0
294 -831 -870 0
294 -829 -913 0
294 -831 -911 0
294 -829 -954 0
294 -831 -952 0
294 -829 -995 0
294 -831 -993 0
294 -870 -913 0
294 -872 -911 0
294 -870 -954 0
294 -872 -952 0
294 -870 -995 0
294 -872 -993 0
294 -911 -954 0
294 -913 -952 0
294 -911 -995 0
294 -913 -993 0
294 -952 -995 0
294 -954 -993 0
295 -829 -873 0
295 -832 -870 0
295 -829 -914 0
295 -832 -911 0
295 -829 -955 0
295 -832 -952 0
295 -829 -996 0
295 -832 -993 0
295 -870 -914 0
295 -873 -911 0
295 -870 -955 0
295 -873 -952 0
295 -870 -996 0
295 -873 -993 0
295 -911 -955 0
295 -914 -952 0
295 -911 -996 0
295 -914 -993 0
295 -952 -996 0
295 -955 -993 0
296 -829 -874 0
296 -833 -870 0
296 -829 -915 0
296 -833 -911 0
296 -829 -956 0
296 -833 -952 0
296 -829 -997 0
296 -833 -993 0
296 -870 -915 0
296 -874 -911 0
296 -870 -956 0
296 -874 -952 0
296 -870 -997 0
296 -874 -993 0
296 -911 -956 0
296 -915 -952 0
296 -911 -997 0
296 -915 -993 0
296 -952 -997 0
296 -956 -993 0
297 -829 -875 0
297 -834 -870 0
297 -829 -916 0
297 -834 -911 0
297 -829 -957 0
297 -834 -952 0
297 -829 -998 0
297 -834 -993 0
297 -870 -916 0
297 -875 -911 0
297 -870 -957 0
297 -875 -952 0
297 -870 -998 0
297 -875 -993 0
297 -911 -957 0
297 -916 -952 0
297 -911 -998 0
297 -916 -993 0
297 -952 -998 0
297 -957 -993 0
298 -829 -876 0
298 -835 -870 0
298 -829 -917 0
298 -835 -911 0
298 -829 -958 0
298 -835 -952 0
298 -829 -999 0
298 -835 -993 0
298 -870 -917 0
298 -876 -911 0
298 -870 -958 0
298 -876 -952 0
298 -870 -999 0
298 -876 -993 0
298 -911 -958 0
298 -917 -952 0
298 -911 -999 0
298 -917 -993 0
298 -952 -999 0
298 -958 -993 0
299 -829 -877 0
299 -836 -870 0
299 -829 -918 0
299 -836 -911 0
299 -829 -959 0
299 -836 -952 0
299 -829 -1000 0
299 -836 -993 0
299 -870 -918 0
299 -877 -911 0
299 -870 -959 0
299 -877 -952 0
299 -870 -1000 0
299 -877 -993 0
299 -911 -959 0
299 -918 -952 0
299 -911 -1000 0
299 -918 -993 0
299 -952 -1000 0
299 -959 -993 0
300 -829 -878 0
300 -837 -870 0
300 -829 -919 0
300 -837 -911 0
300 -829 -960 0
300 -837 -952 0
300 -829 -1001 0
300 -837 -993 0
300 -870 -919 0
300 -878 -911 0
300 -870 -960 0
300 -878 -952 0
300 -870 -1001 0
300 -878 -993 0
300 -911 -960 0
300 -919 -952 0
300 -911 -1001 0
300 -919 -993 0
300 -952 -1001 0
300 -960 -993 0
301 -829 -879 0
301 -838 -870 0
301 -829 -920 0
301 -838 -911 0
301 -829 -961 0
301 -838 -952 0
301 -829 -1002 0
301 -838 -993 0
301 -870 -920 0
301 -879 -911 0
301 -870 -961 0
301 -879 -952 0
301 -870 -1002 0
301 -879 -993 0
301 -911 -961 0
301 -920 -952 0
301 -911 -1002 0
301 -920 -993 0
301 -952 -1002 0
301 -961 -993 0
302 -829 -880 0
302 -839 -870 0
302 -829 -921 0
302 -839 -911 0
302 -829 -962 0
302 -839 -952 0
302 -829 -1003 0
302 -839 -993 0
302 -870 -921 0
302 -880 -911 0
302 -870 -962 0
302 -880 -952 0
302 -870 -1003 0
302 -880 -993 0
302 -911 -962 0
302 -921 -952 0
302 -911 -1003 0
302 -921 -993 0
302 -952 -1003 0
302 -962 -993 0
303 -829 -881 0
303 -840 -870 0
303 -829 -922 0
303 -840 -911 0
303 -829 -963 0
303 -840 -952 0
303 -829 -1004 0
303 -840 -993 0
303 -870 -922 0
303 -881 -911 0
303 -870 -963 0
303 -881 -952 0
303 -870 -1004 0
303 -881 -993 0
303 -911 -963 0
303 -922 -952 0
303 -911 -1004 0
303 -922 -993 0
303 -952 -1004 0
303 -963 -993 0
304 -829 -882 0
304 -841 -870 0
304 -829 -923 0
304 -841 -911 0
304 -829 -964 0
304 -841 -952 0
304 -829 -1005 0
304 -841 -993 0
304 -870 -923 0
304 -882 -911 0
304 -870 -964 0
304 -882 -952 0
304 -870 -1005 0
304 -882 -993 0
304 -911 -964 0
304 -923 -952 0
304 -911 -1005 0
304 -923 -993 0
304 -952 -1005 0
304 -964 -993 0
305 -829 -883 0
305 -842 -870 0
305 -829 -924 0
305 -842 -911 0
305 -829 -965 0
305 -842 -952 0
305 -829 -1006 0
305 -842 -993 0
305 -870 -924 0
305 -883 -911 0
305 -870 -965 0
305 -883 -952 0
305 -870 -1006 0
305 -883 -993 0
305 -911 -965 0
305 -924 -952 0
305 -911 -1006 0
305 -924 -993 0
305 -952 -1006 0
305 -965 -993 0
306 -829 -884 0
306 -843 -870 0
306 -829 -925 0
306 -843 -911 0
306 -829 -966 0
306 -843 -952 0
306 -829 -1007 0
306 -843 -993 0
306 -870 -925 0
306 -884 -911 0
306 -870 -966 0
306 -884 -952 0
306 -870 -1007 0
306 -884 -993 0
306 -911 -966 0
306 -925 -952 0
306 -911 -1007 0
306 -925 -993 0
306 -952 -1007 0
306 -966 -993 0
307 -829 -885 0
307 -844 -870 0
307 -829 -926 0
307 -844 -911 0
307 -829 -967 0
307 -844 -952 0
307 -829 -1008 0
307 -844 -993 0
307 -870 -926 0
307 -885 -911 0
307 -870 -967 0
307 -885 -952 0
307 -870 -1008 0
307 -885 -993 0
307 -911 -967 0
307 -926 -952 0
307 -911 -1008 0
307 -926 -993 0
307 -952 -1008 0
307 -967 -993 0
308 -829 -886 0
308 -845 -870 0
308 -829 -927 0
308 -845 -911 0
308 -829 -968 0
308 -845 -952 0
308 -829 -1009 0
308 -845 -993 0
308 -870 -927 0
308 -886 -911 0
308 -870 -968 0
308 -886 -952 0
308 -870 -1009 0
308 -886 -993 0
308 -911 -968 0
308 -927 -952 0
308 -911 -1009 0
308 -927 -993 0
308 -952 -1009 0
308 -968 -993 0
309 -829 -887 0
309 -846 -870 0
309 -829 -928 0
309 -846 -911 0
309 -829 -969 0
309 -846 -952 0
309 -829 -1010 0
309 -846 -993 0
309 -870 -928 0
309 -887 -911 0
309 -870 -969 0
309 -887 -952 0
309 -870 -1010 0
309 -887 -993 0
309 -911 -969 0
309 -928 -952 0
309 -911 -1010 0
309 -928 -993 0
309 -952 -1010 0
309 -969 -993 0
310 -829 -888 0
310 -847 -870 0
310 -829 -929 0
310 -847 -911 0
310 -829 -970 0
310 -847 -952 0
310 -829 -1011 0
310 -847 -993 0
310 -870 -929 0
310 -888 -911 0
310 -870 -970 0
310 -888 -952 0
310 -870 -1011 0
310 -888 -993 0
310 -911 -970 0
310 -929 -952 0
310 -911 -1011 0
310 -929 -993 0
310 -952 -1011 0
310 -970 -993 0
311 -829 -889 0
311 -848 -870 0
311 -829 -930 0
311 -848 -911 0
311 -829 -971 0
311 -848 -952 0
311 -829 -1012 0
311 -848 -993 0
311 -870 -930 0
311 -889 -911 0
311 -870 -971 0
311 -889 -952 0
311 -870 -1012 0
311 -889 -993 0
311 -911 -971 0
311 -930 -952 0
311 -911 -1012 0
311 -930 -993 0
311 -952 -1012 0
311 -971 -993 0
312 -829 -890 0
312 -849 -870 0
312 -829 -931 0
312 -849 -911 0
312 -829 -972 0
312 -849 -952 0
312 -829 -1013 0
312 -849 -993 0
312 -870 -931 0
312 -890 -911 0
312 -870 -972 0
312 -890 -952 0
312 -870 -1013 0
312 -890 -993 0
312 -911 -972 0
312 -931 -952 0
312 -911 -1013 0
312 -931 -993 0
312 -952 -1013 0
312 -972 -993 0
313 -829 -891 0
313 -850 -870 0
313 -829 -932 0
313 -850 -911 0
313 -829 -973 0
313 -850 -952 0
313 -829 -1014 0
313 -850 -993 0
313 -870 -932 0
313 -891 -911 0
313 -870 -973 0
313 -891 -952 0
313 -870 -1014 0
313 -891 -993 0
313 -911 -973 0
313 -932 -952 0
313 -911 -1014 0
313 -932 -993 0
313 -952 -1014 0
313 -973 -993 0
314 -829 -892 0
314 -851 -870 0
314 -829 -933 0
314 -851 -911 0
314 -829 -974 0
314 -851 -952 0
314 -829 -1015 0
314 -851 -993 0
314 -870 -933 0
314 -892 -911 0
314 -870 -974 0
314 -892 -952 0
314 -870 -1015 0
314 -892 -993 0
314 -911 -974 0
314 -933 -952 0
314 -911 -1015 0
314 -933 -993 0
314 -952 -1015 0
314 -974 -993 0
315 -829 -893 0
315 -852 -870 0
315 -829 -934 0
315 -852 -911 0
315 -829 -975 0
315 -852 -952 0
315 -829 -1016 0
315 -852 -993 0
315 -870 -934 0
315 -893 -911 0
315 -870 -975 0
315 -893 -952 0
315 -870 -1016 0
315 -893 -993 0
315 -911 -975 0
315 -934 -952 0
315 -911 -1016 0
315 -934 -993 0
315 -952 -1016 0
315 -975 -993 0
316 -829 -894 0
316 -853 -870 0
316 -829 -935 0
316 -853 -911 0
316 -829 -976 0
316 -853 -952 0
316 -829 -1017 0
316 -853 -993 0
316 -870 -935 0
316 -894 -911 0
316 -870 -976 0
316 -894 -952 0
316 -870 -1017 0
316 -894 -993 0
316 -911 -976 0
316 -935 -952 0
316 -911 -1017 0
316 -935 -993 0
316 -952 -1017 0
316 -976 -993 0
317 -829 -895 0
317 -854 -870 0
317 -829 -936 0
317 -854 -911 0
317 -829 -977 0
317 -854 -952 0
317 -829 -1018 0
317 -854 -993 0
317 -870 -936 0
317 -895 -911 0
317 -870 -977 0
317 -895 -952 0
317 -870 -1018 0
317 -895 -993 0
317 -911 -977 0
317 -936 -952 0
317 -911 -1018 0
317 -936 -993 0
317 -952 -1018 0
317 -977 -993 0
318 -829 -896 0
318 -855 -870 0
318 -829 -937 0
318 -855 -911 0
318 -829 -978 0
318 -855 -952 0
318 -829 -1019 0
318 -855 -993 0
318 -870 -937 0
318 -896 -911 0
318 -870 -978 0
318 -896 -952 0
318 -870 -1019 0
318 -896 -993 0
318 -911 -978 0
318 -937 -952 0
318 -911 -1019 0
318 -937 -993 0
318 -952 -1019 0
318 -978 -993 0
319 -829 -897 0
319 -856 -870 0
319 -829 -938 0
319 -856 -911 0
319 -829 -979 0
319 -856 -952 0
319 -829 -1020 0
319 -856 -993 0
319 -870 -938 0
319 -897 -911 0
319 -870 -979 0
319 -897 -952 0
319 -870 -1020 0
319 -897 -993 0
319 -911 -979 0
319 -938 -952 0
319 -911 -1020 0
319 -938 -993 0
319 -952 -1020 0
319 -979 -993 0
320 -829 -898 0
320 -857 -870 0
320 -829 -939 0
320 -857 -911 0
320 -829 -980 0
320 -857 -952 0
320 -829 -1021 0
320 -857 -993 0
320 -870 -939 0
320 -898 -911 0
320 -870 -980 0
320 -898 -952 0
320 -870 -1021 0
320 -898 -993 0
320 -911 -980 0
320 -939 -952 0
320 -911 -1021 0
320 -939 -993 0
320 -952 -1021 0
320 -980 -993 0
321 -829 -899 0
321 -858 -870 0
321 -829 -940 0
321 -858 -911 0
321 -829 -981 0
321 -858 -952 0
321 -829 -1022 0
321 -858 -993 0
321 -870 -940 0
321 -899 -911 0
321 -870 -981 0
321 -899 -952 0
321 -870 -1022 0
321 -899 -993 0
321 -911 -981 0
321 -940 -952 0
321 -911 -1022 0
321 -940 -993 0
321 -952 -1022 0
321 -981 -993 0
322 -829 -900 0
322 -859 -870 0
322 -829 -941 0
322 -859 -911 0
322 -829 -982 0
322 -859 -952 0
322 -829 -1023 0
322 -859 -993 0
322 -870 -941 0
322 -900 -911 0
322 -870 -982 0
322 -900 -952 0
322 -870 -1023 0
322 -900 -993 0
322 -911 -982 0
322 -941 -952 0
322 -911 -1023 0
322 -941 -993 0
322 -952 -1023 0
322 -982 -993 0
323 -829 -901 0
323 -860 -870 0
323 -829 -942 0
323 -860 -911 0
323 -829 -983 0
323 -860 -952 0
323 -829 -1024 0
323 -860 -993 0
323 -870 -942 0
323 -901 -911 0
323 -870 -983 0
323 -901 -952 0
323 -870 -1024 0
323 -901 -993 0
323 -911 -983 0
323 -942 -952 0
323 -911 -1024 0
323 -942 -993 0
323 -952 -1024 0
323 -983 -993 0
324 -829 -902 0
324 -861 -870 0
324 -829 -943 0
324 -861 -911 0
324 -829 -984 0
324 -861 -952 0
324 -829 -1025 0
324 -861 -993 0
324 -870 -943 0
324 -902 -911 0
324 -870 -984 0
324 -902 -952 0
324 -870 -1025 0
324 -902 -993 0
324 -911 -984 0
324 -943 -952 0
324 -911 -1025 0
324 -943 -993 0
324 -952 -1025 0
324 -984 -993 0
325 -830 -872 0
325 -831 -871 0
325 -830 -913 0
325 -831 -912 0
325 -830 -954 0
325 -831 -953 0
325 -830 -995 0
325 -831 -994 0
325 -871 -913 0
325 -872 -912 0
325 -871 -954 0
325 -872 -953 0
325 -871 -995 0
325 -872 -994 0
325 -912 -954 0
325 -913 -953 0
325 -912 -995 0
325 -913 -994 0
325 -953 -995 0
325 -954 -994 0
326 -830 -873 0
326 -832 -871 0
326 -830 -914 0
326 -832 -912 0
326 -830 -955 0
326 -832 -953 0
326 -830 -996 0
326 -832 -994 0
326 -871 -914 0
326 -873 -912 0
326 -871 -955 0
326 -873 -953 0
326 -871 -996 0
326 -873 -994 0
326 -912 -955 0
326 -914 -953 0
326 -912 -996 0
326 -914 -994 0
326 -953 -996 0
326 -955 -994 0
327 -830 -874 0
327 -833 -871 0
327 -830 -915 0
327 -833 -912 0
327 -830 -956 0
327 -833 -953 0
327 -830 -997 0
327 -833 -994 0
327 -871 -915 0
327 -874 -912 0
327 -871 -956 0
327 -874 -953 0
327 -871 -997 0
327 -874 -994 0
327 -912 -956 0
327 -915 -953 0
327 -912 -997 0
327 -915 -994 0
327 -953 -997 0
327 -956 -994 0
328 -830 -875 0
328 -834 -871 0
328 -830 -916 0
328 -834 -912 0
328 -830 -957 0
328 -834 -953 0
328 -830 -998 0
328 -834 -994 0
328 -871 -916 0
328 -875 -912 0
328 -871 -957 0
328 -875 -953 0
328 -871 -998 0
328 -875 -994 0
328 -912 -957 0
328 -916 -953 0
328 -912 -998 0
328 -916 -994 0
328 -953 -998 0
328 -957 -994 0
329 -830 -876 0
329 -835 -871 0
329 -830 -917 0
329 -835 -912 0
329 -830 -958 0
329 -835 -953 0
329 -830 -999 0
329 -835 -994 0
329 -871 -917 0
329 -876 -912 0
329 -871 -958 0
329 -876 -953 0
329 -871 -999 0
329 -876 -994 0
329 -912 -958 0
329 -917 -953 0
329 -912 -999 0
329 -917 -994 0
329 -953 -999 0
329 -958 -994 0
330 -830 -877 0
330 -836 -871 0
330 -830 -918 0
330 -836 -912 0
330 -830 -959 0
330 -836 -953 0
330 -830 -1000 0
330 -836 -994 0
330 -871 -918 0
330 -877 -912 0
330 -871 -959 0
330 -877 -953 0
330 -871 -1000 0
330 -877 -994 0
330 -912 -959 0
330 -918 -953 0
330 -912 -1000 0
330 -918 -994 0
330 -953 -1000 0
330 -959 -994 0
331 -830 -878 0
331 -837 -871 0
331 -830 -919 0
331 -837 -912 0
331 -830 -960 0
331 -837 -953 0
331 -830 -1001 0
331 -837 -994 0
331 -871 -919 0
331 -878 -912 0
331 -871 -960 0
331 -878 -953 0
331 -871 -1001 0
331 -878 -994 0
331 -912 -960 0
331 -919 -953 0
331 -912 -1001 0
331 -919 -994 0
331 -953 -1001 0
331 -960 -994 0
332 -830 -879 0
332 -838 -871 0
332 -830 -920 0
332 -838 -912 0
332 -830 -961 0
332 -838 -953 0
332 -830 -1002 0
332 -838 -994 0
332 -871 -920 0
332 -879 -912 0
332 -871 -961 0
332 -879 -953 0
332 -871 -1002 0
332 -879 -994 0
332 -912 -961 0
332 -920 -953 0
332 -912 -1002 0
332 -920 -994 0
332 -953 -1002 0
332 -961 -994 0
333 -830 -880 0
333 -839 -871 0
333 -830 -921 0
333 -839 -912 0
333 -830 -962 0
333 -839 -953 0
333 -830 -1003 0
333 -839 -994 0
333 -871 -921 0
333 -880 -912 0
333 -871 -962 0
333 -880 -953 0
333 -871 -1003 0
333 -880 -994 0
333 -912 -962 0
333 -921 -953 0
333 -912 -1003 0
333 -921 -994 0
333 -953 -1003 0
333 -962 -994 0
334 -830 -881 0
334 -840 -871 0
334 -830 -922 0
334 -840 -912 0
334 -830 -963 0
334 -840 -953 0
334 -830 -1004 0
334 -840 -994 0
334 -871 -922 0
334 -881 -912 0
334 -871 -963 0
334 -881 -953 0
334 -871 -1004 0
334 -881 -994 0
334 -912 -963 0
334 -922 -953 0
334 -912 -1004 0
334 -922 -994 0
334 -953 -1004 0
334 -963 -994 0
335 -830 -882 0
335 -841 -871 0
335 -830 -923 0
335 -841 -912 0
335 -830 -964 0
335 -841 -953 0
335 -830 -1005 0
335 -841 -994 0
335 -871 -923 0
335 -882 -912 0
335 -871 -964 0
335 -882 -953 0
335 -871 -1005 0
335 -882 -994 0
335 -912 -964 0
335 -923 -953 0
335 -912 -1005 0
335 -923 -994 0
335 -953 -1005 0
335 -964 -994 0
336 -830 -883 0
336 -842 -871 0
336 -830 -924 0
336 -842 -912 0
336 -830 -965 0
336 -842 -953 0
336 -830 -1006 0
336 -842 -994 0
336 -871 -924 0
336 -883 -912 0
336 -871 -965 0
336 -883 -953 0
336 -871 -1006 0
336 -883 -994 0
336 -912 -965 0
336 -924 -953 0
336 -912 -1006 0
336 -924 -994 0
336 -953 -1006 0
336 -965 -994 0
337 -830 -884 0
337 -843 -871 0
337 -830 -925 0
337 -843 -912 0
337 -830 -966 0
337 -843 -953 0
337 -830 -1007 0
337 -843 -994 0
337 -871 -925 0
337 -884 -912 0
337 -871 -966 0
337 -884 -953 0
337 -871 -1007 0
337 -884 -994 0
337 -912 -966 0
337 -925 -953 0
337 -912 -1007 0
337 -925 -994 0
337 -953 -1007 0
337 -966 -994 0
338 -830 -885 0
338 -844 -871 0
338 -830 -926 0
338 -844 -912 0
338 -830 -967 0
338 -844 -953 0
338 -830 -1008 0
338 -844 -994 0
338 -871 -926 0
338 -885 -912 0
338 -871 -967 0
338 -885 -953 0
338 -871 -1008 0
338 -885 -994 0
338 -912 -967 0
338 -926 -953 0
338 -912 -1008 0
338 -926 -994 0
338 -953 -1008 0
338 -967 -994 0
339 -830 -886 0
339 -845 -871 0
339 -830 -927 0
339 -845 -912 0
339 -830 -968 0
339 -845 -953 0
339 -830 -1009 0
339 -845 -994 0
339 -871 -927 0
339 -886 -912 0
339 -871 -968 0
339 -886 -953 0
339 -871 -1009 0
339 -886 -994 0
339 -912 -968 0
339 -927 -953 0
339 -912 -1009 0
339 -927 -994 0
339 -953 -1009 0
339 -968 -994 0
340 -830 -887 0
340 -846 -871 0
340 -830 -928 0
340 -846 -912 0
340 -830 -969 0
340 -846 -953 0
340 -830 -1010 0
340 -846 -994 0
340 -871 -928 0
340 -887 -912 0
340 -871 -969 0
340 -887 -953 0
340 -871 -1010 0
340 -887 -994 0
340 -912 -969 0
340 -928 -953 0
340 -912 -1010 0
340 -928 -994 0
340 -953 -1010 0
340 -969 -994 0
341 -830 -888 0
341 -847 -871 0
341 -830 -929 0
341 -847 -912 0
341 -830 -970 0
341 -847 -953 0
341 -830 -1011 0
341 -847 -994 0
341 -871 -929 0
341 -888 -912 0
341 -871 -970 0
341 -888 -953 0
341 -871 -1011 0
341 -888 -994 0
341 -912 -970 0
341 -929 -953 0
341 -912 -1011 0
341 -929 -994 0
341 -953 -1011 0
341 -970 -994 0
342 -830 -889 0
342 -848 -871 0
342 -830 -930 0
342 -848 -912 0
342 -830 -971 0
342 -848 -953 0
342 -830 -1012 0
342 -848 -994 0
342 -871 -930 0
342 -889 -912 0
342 -871 -971 0
342 -889 -953 0
342 -871 -1012 0
342 -889 -994 0
342 -912 -971 0
342 -930 -953 0
342 -912 -1012 0
342 -930 -994 0
342 -953 -1012 0
342 -971 -994 0
343 -830 -890 0
343 -849 -871 0
343 -830 -931 0
343 -849 -912 0
343 -830 -972 0
343 -849 -953 0
343 -830 -1013 0
343 -849 -994 0
343 -871 -931 0
343 -890 -912 0
343 -871 -972 0
343 -890 -953 0
343 -871 -1013 0
343 -890 -994 0
343 -912 -972 0
343 -931 -953 0
343 -912 -1013 0
343 -931 -994 0
343 -953 -1013 0
343 -972 -994 0
344 -830 -891 0
344 -850 -871 0
344 -830 -932 0
344 -850 -912 0
344 -830 -973 0
344 -850 -953 0
344 -830 -1014 0
344 -850 -994 0
344 -871 -932 0
344 -891 -912 0
344 -871 -973 0
344 -891 -953 0
344 -871 -1014 0
344 -891 -994 0
344 -912 -973 0
344 -932 -953 0
344 -912 -1014 0
344 -932 -994 0
344 -953 -1014 0
344 -973 -994 0
345 -830 -892 0
345 -851 -871 0
345 -830 -933 0
345 -851 -912 0
345 -830 -974 0
345 -851 -953 0
345 -830 -1015 0
345 -851 -994 0
345 -871 -933 0
345 -892 -912 0
345 -871 -974 0
345 -892 -953 0
345 -871 -1015 0
345 -892 -994 0
345 -912 -974 0
345 -933 -953 0
345 -912 -1015 0
345 -933 -994 0
345 -953 -1015 0
345 -974 -994 0
346 -830 -893 0
346 -852 -871 0
346 -830 -934 0
346 -852 -912 0
346 -830 -975 0
346 -852 -953 0
346 -830 -1016 0
346 -852 -994 0
346 -871 -934 0
346 -893 -912 0
346 -871 -975 0
346 -893 -953 0
346 -871 -1016 0
346 -893 -994 0
346 -912 -975 0
346 -934 -953 0
346 -912 -1016 0
346 -934 -994 0
346 -953 -1016 0
346 -975 -994 0
347 -830 -894 0
347 -853 -871 0
347 -830 -935 0
347 -853 -912 0
347 -830 -976 0
347 -853 -953 0
347 -830 -1017 0
347 -853 -994 0
347 -871 -935 0
347 -894 -912 0
347 -871 -976 0
347 -894 -953 0
347 -871 -1017 0
347 -894 -994 0
347 -912 -976 0
347 -935 -953 0
347 -912 -1017 0
347 -935 -994 0
347 -953 -1017 0
347 -976 -994 0
348 -830 -895 0
348 -854 -871 0
348 -830 -936 0
348 -854 -912 0
348 -830 -977 0
348 -854 -953 0
348 -830 -1018 0
348 -854 -994 0
348 -871 -936 0
348 -895 -912 0
348 -871 -977 0
348 -895 -953 0
348 -871 -1018 0
348 -895 -994 0
348 -912 -977 0
348 -936 -953 0
348 -912 -1018 0
348 -936 -994 0
348 -953 -1018 0
348 -977 -994 0
349 -830 -896 0
349 -855 -871 0
349 -830 -937 0
349 -855 -912 0
349 -830 -978 0
349 -855 -953 0
349 -830 -1019 0
349 -855 -994 0
349 -871 -937 0
349 -896 -912 0
349 -871 -978 0
349 -896 -953 0
349 -871 -1019 0
349 -896 -994 0
349 -912 -978 0
349 -937 -953 0
349 -912 -1019 0
349 -937 -994 0
349 -953 -1019 0
349 -978 -994 0
350 -830 -897 0
350 -856 -871 0
350 -830 -938 0
350 -856 -912 0
350 -830 -979 0
350 -856 -953 0
350 -830 -1020 0
350 -856 -994 0
350 -871 -938 0
350 -897 -912 0
350 -871 -979 0
350 -897 -953 0
350 -871 -1020 0
350 -897 -994 0
350 -912 -979 0
350 -938 -953 0
350 -912 -1020 0
350 -938 -994 0
350 -953 -1020 0
350 -979 -994 0
351 -830 -898 0
351 -857 -871 0
351 -830 -939 0
351 -857 -912 0
351 -830 -980 0
351 -857 -953 0
351 -830 -1021 0
351 -857 -994 0
351 -871 -939 0
351 -898 -912 0
351 -871 -980 0
351 -898 -953 0
351 -871 -1021 0
351 -898 -994 0
351 -912 -980 0
351 -939 -953 0
351 -912 -1021 0
351 -939 -994 0
351 -953 -1021 0
351 -980 -994 0
352 -830 -899 0
352 -858 -871 0
352 -830 -940 0
352 -858 -912 0
352 -830 -981 0
352 -858 -953 0
352 -830 -1022 0
352 -858 -994 0
352 -871 -940 0
352 -899 -912 0
352 -871 -981 0
352 -899 -953 0
352 -871 -1022 0
352 -899 -994 0
352 -912 -981 0
352 -940 -953 0
352 -912 -1022 0
352 -940 -994 0
352 -953 -1022 0
352 -981 -994 0
353 -830 -900 0
353 -859 -871 0
353 -830 -941 0
353 -859 -912 0
353 -830 -982 0
353 -859 -953 0
353 -830 -1023 0
353 -859 -994 0
353 -871 -941 0
353 -900 -912 0
353 -871 -982 0
353 -900 -953 0
353 -871 -1023 0
353 -900 -994 0
353 -912 -982 0
353 -941 -953 0
353 -912 -1023 0
353 -941 -994 0
353 -953 -1023 0
353 -982 -994 0
354 -830 -901 0
354 -860 -871 0
354 -830 -942 0
354 -860 -912 0
354 -830 -983 0
354 -860 -953 0
354 -830 -1024 0
354 -860 -994 0
354 -871 -942 0
354 -901 -912 0
354 -871 -983 0
354 -901 -953 0
354 -871 -1024 0
354 -901 -994 0
354 -912 -983 0
354 -942 -953 0
354 -912 -1024 0
354 -942 -994 0
354 -953 -1024 0
354 -983 -994 0
355 -830 -902 0
355 -861 -871 0
355 -830 -943 0
355 -861 -912 0
355 -830 -984 0
355 -861 -953 0
355 -830 -1025 0
355 -861 -994 0
355 -871 -943 0
355 -902 -912 0
355 -871 -984 0
355 -902 -953 0
355 -871 -1025 0
355 -902 -994 0
355 -912 -984 0
355 -943 -953 0
355 -912 -1025 0
355 -943 -994 0
355 -953 -1025 0
355 -984 -994 0
356 -831 -873 0
356 -832 -872 0
356 -831 -914 0
356 -832 -913 0
356 -831 -955 0
356 -832 -954 0
356 -831 -996 0
356 -832 -995 0
356 -872 -914 0
356 -873 -913 0
356 -872 -955 0
356 -873 -954 0
356 -872 -996 0
356 -873 -995 0
356 -913 -955 0
356 -914 -954 0
356 -913 -996 0
356 -914 -995 0
356 -954 -996 0
356 -955 -995 0
357 -831 -874 0
357 -833 -872 0
357 -831 -915 0
357 -833 -913 0
357 -831 -956 0
357 -833 -954 0
357 -831 -997 0
357 -833 -995 0
357 -872 -915 0
357 -874 -913 0
357 -872 -956 0
357 -874 -954 0
357 -872 -997 0
357 -874 -995 0
357 -913 -956 0
357 -915 -954 0
357 -913 -997 0
357 -915 -995 0
357 -954 -997 0
357 -956 -995 0
358 -831 -875 0
358 -834 -872 0
358 -831 -916 0
358 -834 -913 0
358 -831 -957 0
358 -834 -954 0
358 -831 -998 0
358 -834 -995 0
358 -872 -916 0
358 -875 -913 0
358 -872 -957 0
358 -875 -954 0
358 -872 -998 0
358 -875 -995 0
358 -913 -957 0
358 -916 -954 0
358 -913 -998 0
358 -916 -995 0
358 -954 -998 0
358 -957 -995 0
359 -831 -876 0
359 -835 -872 0
359 -831 -917 0
359 -835 -913 0
359 -831 -958 0
359 -835 -954 0
359 -831 -999 0
359 -835 -995 0
359 -872 -917 0
359 -876 -913 0
359 -872 -958 0
359 -876 -954 0
359 -872 -999 0
359 -876 -995 0
359 -913 -958 0
359 -917 -954 0
359 -913 -999 0
359 -917 -995 0
359 -954 -999 0
359 -958 -995 0
360 -831 -877 0
360 -836 -872 0
360 -831 -918 0
360 -836 -913 0
360 -831 -959 0
360 -836 -954 0
360 -831 -1000 0
360 -836 -995 0
360 -872 -918 0
360 -877 -913 0
360 -872 -959 0
360 -877 -954 0
360 -872 -1000 0
360 -877 -995 0
360 -913 -959 0
360 -918 -954 0
360 -913 -1000 0
360 -918 -995 0
360 -954 -1000 0
360 -959 -995 0
361 -831 -878 0
361 -837 -872 0
361 -831 -919 0
361 -837 -913 0
361 -831 -960 0
361 -837 -954 0
361 -831 -1001 0
361 -837 -995 0
361 -872 -919 0
361 -878 -913 0
361 -872 -960 0
361 -878 -954 0
361 -872 -1001 0
361 -878 -995 0
361 -913 -960 0
361 -919 -954 0
361 -913 -1001 0
361 -919 -995 0
361 -954 -1001 0
361 -960 -995 0
362 -831 -879 0
362 -838 -872 0
362 -831 -920 0
362 -838 -913 0
362 -831 -961 0
362 -838 -954 0
362 -831 -1002 0
362 -838 -995 0
362 -872 -920 0
362 -879 -913 0
362 -872 -961 0
362 -879 -954 0
362 -872 -1002 0
362 -879 -995 0
362 -913 -961 0
362 -920 -954 0
362 -913 -1002 0
362 -920 -995 0
362 -954 -1002 0
362 -961 -995 0
363 -831 -880 0
363 -839 -872 0
363 -831 -921 0
363 -839 -913 0
363 -831 -962 0
363 -839 -954 0
363 -831 -1003 0
363 -839 -995 0
363 -872 -921 0
363 -880 -913 0
363 -872 -962 0
363 -880 -954 0
363 -872 -1003 0
363 -880 -995 0
363 -913 -962 0
363 -921 -954 0
363 -913 -1003 0
363 -921 -995 0
363 -954 -1003 0
363 -962 -995 0
364 -831 -881 0
364 -840 -872 0
364 -831 -922 0
364 -840 -913 0
364 -831 -963 0
364 -840 -954 0
364 -831 -1004 0
364 -840 -995 0
364 -872 -922 0
364 -881 -913 0
364 -872 -963 0
364 -881 -954 0
364 -872 -1004 0
364 -881 -995 0
364 -913 -963 0
364 -922 -954 0
364 -913 -1004 0
364 -922 -995 0
364 -954 -1004 0
364 -963 -995 0
365 -831 -882 0
365 -841 -872 0
365 -831 -923 0
365 -841 -913 0
365 -831 -964 0
365 -841 -954 0
365 -831 -1005 0
365 -841 -995 0
365 -872 -923 0
365 -882 -913 0
365 -872 -964 0
365 -882 -954 0
365 -872 -1005 0
365 -882 -995 0
365 -913 -964 0
365 -923 -954 0
365 -913 -1005 0
365 -923 -995 0
365 -954 -1005 0
365 -964 -995 0
366 -831 -883 0
366 -842 -872 0
366 -831 -924 0
366 -842 -913 0
366 -831 -965 0
366 -842 -954 0
366 -831 -1006 0
366 -842 -995 0
366 -872 -924 0
366 -883 -913 0
366 -872 -965 0
366 -883 -954 0
366 -872 -1006 0
366 -883 -995 0
366 -913 -965 0
366 -924 -954 0
366 -913 -1006 0
366 -924 -995 0
366 -954 -1006 0
366 -965 -995 0
367 -831 -884 0
367 -843 -872 0
367 -831 -925 0
367 -843 -913 0
367 -831 -966 0
367 -843 -954 0
367 -831 -1007 0
367 -843 -995 0
367 -872 -925 0
367 -884 -913 0
367 -872 -966 0
367 -884 -954 0
367 -872 -1007 0
367 -884 -995 0
367 -913 -966 0
367 -925 -954 0
367 -913 -1007 0
367 -925 -995 0
367 -954 -1007 0
367 -966 -995 0
368 -831 -885 0
368 -844 -872 0
368 -831 -926 0
368 -844 -913 0
368 -831 -967 0
368 -844 -954 0
368 -831 -1008 0
368 -844 -995 0
368 -872 -926 0
368 -885 -913 0
368 -872 -967 0
368 -885 -954 0
368 -872 -1008 0
368 -885 -995 0
368 -913 -967 0
368 -926 -954 0
368 -913 -1008 0
368 -926 -995 0
368 -954 -1008 0
368 -967 -995 0
369 -831 -886 0
369 -845 -872 0
369 -831 -927 0
369 -845 -913 0
369 -831 -968 0
369 -845 -954 0
369 -831 -1009 0
369 -845 -995 0
369 -872 -927 0
369 -886 -913 0
369 -872 -968 0
369 -886 -954 0
369 -872 -1009 0
369 -886 -995 0
369 -913 -968 0
369 -927 -954 0
369 -913 -1009 0
369 -927 -995 0
369 -954 -1009 0
369 -968 -995 0
370 -831 -887 0
370 -846 -872 0
370 -831 -928 0
370 -846 -913 0
370 -831 -969 0
370 -846 -954 0
370 -831 -1010 0
370 -846 -995 0
370 -872 -928 0
370 -887 -913 0
370 -872 -969 0
370 -887 -954 0
370 -872 -1010 0
370 -887 -995 0
370 -913 -969 0
370 -928 -954 0
370 -913 -1010 0
370 -928 -995 0
370 -954 -1010 0
370 -969 -995 0
371 -831 -888 0
371 -847 -872 0
371 -831 -929 0
371 -847 -913 0
371 -831 -970 0
371 -847 -954 0
371 -831 -1011 0
371 -847 -995 0
371 -872 -929 0
371 -888 -913 0
371 -872 -970 0
371 -888 -954 0
371 -872 -1011 0
371 -888 -995 0
371 -913 -970 0
371 -929 -954 0
371 -913 -1011 0
371 -929 -995 0
371 -954 -1011 0
371 -970 -995 0
372 -831 -889 0
372 -848 -872 0
372 -831 -930 0
372 -848 -913 0
372 -831 -971 0
372 -848 -954 0
372 -831 -1012 0
372 -848 -995 0
372 -872 -930 0
372 -889 -913 0
372 -872 -971 0
372 -889 -954 0
372 -872 -1012 0
372 -889 -995 0
372 -913 -971 0
372 -930 -954 0
372 -913 -1012 0
372 -930 -995 0
372 -954 -1012 0
372 -971 -995 0
373 -831 -890 0
373 -849 -872 0
373 -831 -931 0
373 -849 -913 0
373 -831 -972 0
373 -849 -954 0
373 -831 -1013 0
373 -849 -995 0
373 -872 -931 0
373 -890 -913 0
373 -872 -972 0
373 -890 -954 0
373 -872 -1013 0
373 -890 -995 0
373 -913 -972 0
373 -931 -954 0
373 -913 -1013 0
373 -931 -995 0
373 -954 -1013 0
373 -972 -995 0
374 -831 -891 0
374 -850 -872 0
374 -831 -932 0
374 -850 -913 0
374 -831 -973 0
374 -850 -954 0
374 -831 -1014 0
374 -850 -995 0
374 -872 -932 0
374 -891 -913 0
374 -872 -973 0
374 -891 -954 0
374 -872 -1014 0
374 -891 -995 0
374 -913 -973 0
374 -932 -954 0
374 -913 -1014 0
374 -932 -995 0
374 -954 -1014 0
374 -973 -995 0
375 -831 -892 0
375 -851 -872 0
375 -831 -933 0
375 -851 -913 0
375 -831 -974 0
375 -851 -954 0
375 -831 -1015 0
375 -851 -995 0
375 -872 -933 0
375 -892 -913 0
375 -872 -974 0
375 -892 -954 0
375 -872 -1015 0
375 -892 -995 0
375 -913 -974 0
375 -933 -954 0
375 -913 -1015 0
375 -933 -995 0
375 -954 -1015 0
375 -974 -995 0
376 -831 -893 0
376 -852 -872 0
376 -831 -934 0
376 -852 -913 0
376 -831 -975 0
376 -852 -954 0
376 -831 -1016 0
376 -852 -995 0
376 -872 -934 0
376 -893 -913 0
376 -872 -975 0
376 -893 -954 0
376 -872 -1016 0
376 -893 -995 0
376 -913 -975 0
376 -934 -954 0
376 -913 -1016 0
376 -934 -995 0
376 -954 -1016 0
376 -975 -995 0
377 -831 -894 0
377 -853 -872 0
377 -831 -935 0
377 -853 -913 0
377 -831 -976 0
377 -853 -954 0
377 -831 -1017 0
377 -853 -995 0
377 -872 -935 0
377 -894 -913 0
377 -872 -976 0
377 -894 -954 0
377 -872 -1017 0
377 -894 -995 0
377 -913 -976 0
377 -935 -954 0
377 -913 -1017 0
377 -935 -995 0
377 -954 -1017 0
377 -976 -995 0
378 -831 -895 0
378 -854 -872 0
378 -831 -936 0
378 -854 -913 0
378 -831 -977 0
378 -854 -954 0
378 -831 -1018 0
378 -854 -995 0
378 -872 -936 0
378 -895 -913 0
378 -872 -977 0
378 -895 -954 0
378 -872 -1018 0
378 -895 -995 0
378 -913 -977 0
378 -936 -954 0
378 -913 -1018 0
378 -936 -995 0
378 -954 -1018 0
378 -977 -995 0
379 -831 -896 0
379 -855 -872 0
379 -831 -937 0
379 -855 -913 0
379 -831 -978 0
379 -855 -954 0
379 -831 -1019 0
379 -855 -995 0
379 -872 -937 0
379 -896 -913 0
379 -872 -978 0
379 -896 -954 0
379 -872 -1019 0
379 -896 -995 0
379 -913 -978 0
379 -937 -954 0
379 -913 -1019 0
379 -937 -995 0
379 -954 -1019 0
379 -978 -995 0
380 -831 -897 0
380 -856 -872 0
380 -831 -938 0
380 -856 -913 0
380 -831 -979 0
380 -856 -954 0
380 -831 -1020 0
380 -856 -995 0
380 -872 -938 0
380 -897 -913 0
380 -872 -979 0
380 -897 -954 0
380 -872 -1020 0
380 -897 -995 0
380 -913 -979 0
380 -938 -954 0
380 -913 -1020 0
380 -938 -995 0
380 -954 -1020 0
380 -979 -995 0
381 -831 -898 0
381 -857 -872 0
381 -831 -939 0
381 -857 -913 0
381 -831 -980 0
381 -857 -954 0
381 -831 -1021 0
381 -857 -995 0
381 -872 -939 0
381 -898 -913 0
381 -872 -980 0
381 -898 -954 0
381 -872 -1021 0
381 -898 -995 0
381 -913 -980 0
381 -939 -954 0
381 -913 -1021 0
381 -939 -995 0
381 -954 -1021 0
381 -980 -995 0
382 -831 -899 0
382 -858 -872 0
382 -831 -940 0
382 -858 -913 0
382 -831 -981 0
382 -858 -954 0
382 -831 -1022 0
382 -858 -995 0
382 -872 -940 0
382 -899 -913 0
382 -872 -981 0
382 -899 -954 0
382 -872 -1022 0
382 -899 -995 0
382 -913 -981 0
382 -940 -954 0
382 -913 -1022 0
382 -940 -995 0
382 -954 -1022 0
382 -981 -995 0
383 -831 -900 0
383 -859 -872 0
383 -831 -941 0
383 -859 -913 0
383 -831 -982 0
383 -859 -954 0
383 -831 -1023 0
383 -859 -995 0
383 -872 -941 0
383 -900 -913 0
383 -872 -982 0
383 -900 -954 0
383 -872 -1023 0
383 -900 -995 0
383 -913 -982 0
383 -941 -954 0
383 -913 -1023 0
383 -941 -995 0
383 -954 -1023 0
383 -982 -995 0
384 -831 -901 0
384 -860 -872 0
384 -831 -942 0
384 -860 -913 0
384 -831 -983 0
384 -860 -954 0
384 -831 -1024 0
384 -860 -995 0
384 -872 -942 0
384 -901 -913 0
384 -872 -983 0
384 -901 -954 0
384 -872 -1024 0
384 -901 -995 0
384 -913 -983 0
384 -942 -954 0
384 -913 -1024 0
384 -942 -995 0
384 -954 -1024 0
384 -983 -995 0
385 -831 -902 0
385 -861 -872 0
385 -831 -943 0
385 -861 -913 0
385 -831 -984 0
385 -861 -954 0
385 -831 -1025 0
385 -861 -995 0
385 -872 -943 0
385 -902 -913 0
385 -872 -984 0
385 -902 -954 0
385 -872 -1025 0
385 -902 -995 0
385 -913 -984 0
385 -943 -954 0
385 -913 -1025 0
385 -943 -995 0
385 -954 -1025 0
385 -984 -995 0
386 -832 -874 0
386 -833 -873 0
386 -832 -915 0
386 -833 -914 0
386 -832 -956 0
386 -833 -955 0
386 -832 -997 0
386 -833 -996 0
386 -873 -915 0
386 -874 -914 0
386 -873 -956 0
386 -874 -955 0
386 -873 -997 0
386 -874 -996 0
386 -914 -956 0
386 -915 -955 0
386 -914 -997 0
386 -915 -996 0
386 -955 -997 0
386 -956 -996 0
387 -832 -875 0
387 -834 -873 0
387 -832 -916 0
387 -834 -914 0
387 -832 -957 0
387 -834 -955 0
387 -832 -998 0
387 -834 -996 0
387 -873 -916 0
387 -875 -914 0
387 -873 -957 0
387 -875 -955 0
387 -873 -998 0
387 -875 -996 0
387 -914 -957 0
387 -916 -955 0
387 -914 -998 0
387 -916 -996 0
387 -955 -998 0
387 -957 -996 0
388 -832 -876 0
388 -835 -873 0
388 -832 -917 0
388 -835 -914 0
388 -832 -958 0
388 -835 -955 0
388 -832 -999 0
388 -835 -996 0
388 -873 -917 0
388 -876 -914 0
388 -873 -958 0
388 -876 -955 0
388 -873 -999 0
388 -876 -996 0
388 -914 -958 0
388 -917 -955 0
388 -914 -999 0
388 -917 -996 0
388 -955 -999 0
388 -958 -996 0
389 -832 -877 0
389 -836 -873 0
389 -832 -918 0
389 -836 -914 0
389 -832 -959 0
389 -836 -955 0
389 -832 -1000 0
389 -836 -996 0
389 -873 -918 0
389 -877 -914 0
389 -873 -959 0
389 -877 -955 0
389 -873 -1000 0
389 -877 -996 0
389 -914 -959 0
389 -918 -955 0
389 -914 -1000 0
389 -918 -996 0
389 -955 -1000 0
389 -959 -996 0
390 -832 -878 0
390 -837 -873 0
390 -832 -919 0
390 -837 -914 0
390 -832 -960 0
390 -837 -955 0
390 -832 -1001 0
390 -837 -996 0
390 -873 -919 0
390 -878 -914 0
390 -873 -960 0
390 -878 -955 0
390 -873 -1001 0
390 -878 -996 0
390 -914 -960 0
390 -919 -955 0
390 -914 -1001 0
390 -919 -996 0
390 -955 -1001 0
390 -960 -996 0
391 -832 -879 0
391 -838 -873 0
391 -832 -920 0
391 -838 -914 0
391 -832 -961 0
391 -838 -955 0
391 -832 -1002 0
391 -838 -996 0
391 -873 -920 0
391 -879 -914 0
391 -873 -961 0
391 -879 -955 0
391 -873 -1002 0
391 -879 -996 0
391 -914 -961 0
391 -920 -955 0
391 -914 -1002 0
391 -920 -996 0
391 -955 -1002 0
391 -961 -996 0
392 -832 -880 0
392 -839 -873 0
392 -832 -921 0
392 -839 -914 0
392 -832 -962 0
392 -839 -955 0
392 -832 -1003 0
392 -839 -996 0
392 -873 -921 0
392 -880 -914 0
392 -873 -962 0
392 -880 -955 0
392 -873 -1003 0
392 -880 -996 0
392 -914 -962 0
392 -921 -955 0
392 -914 -1003 0
392 -921 -996 0
392 -955 -1003 0
392 -962 -996 0
393 -832 -881 0
393 -840 -873 0
393 -832 -922 0
393 -840 -914 0
393 -832 -963 0
393 -840 -955 0
393 -832 -1004 0
393 -840 -996 0
393 -873 -922 0
393 -881 -914 0
393 -873 -963 0
393 -881 -955 0
393 -873 -1004 0
393 -881 -996 0
393 -914 -963 0
393 -922 -955 0
393 -914 -1004 0
393 -922 -996 0
393 -955 -1004 0
393 -963 -996 0
394 -832 -882 0
394 -841 -873 0
394 -832 -923 0
394 -841 -914 0
394 -832 -964 0
394 -841 -955 0
394 -832 -1005 0
394 -841 -996 0
394 -873 -923 0
394 -882 -914 0
394 -873 -964 0
394 -882 -955 0
394 -873 -1005 0
394 -882 -996 0
394 -914 -964 0
394 -923 -955 0
394 -914 -1005 0
394 -923 -996 0
394 -955 -1005 0
394 -964 -996 0
395 -832 -883 0
395 -842 -873 0
395 -832 -924 0
395 -842 -914 0
395 -832 -965 0
395 -842 -955 0
395 -832 -1006 0
395 -842 -996 0
395 -873 -924 0
395 -883 -914 0
395 -873 -965 0
395 -883 -955 0
395 -873 -1006 0
395 -883 -996 0
395 -914 -965 0
395 -924 -955 0
395 -914 -1006 0
395 -924 -996 0
395 -955 -1006 0
395 -965 -996 0
396 -832 -884 0
396 -843 -873 0
396 -832 -925 0
396 -843 -914 0
396 -832 -966 0
396 -843 -955 0
396 -832 -1007 0
396 -843 -996 0
396 -873 -925 0
396 -884 -914 0
396 -873 -966 0
396 -884 -955 0
396 -873 -1007 0
396 -884 -996 0
396 -914 -966 0
396 -925 -955 0
396 -914 -1007 0
396 -925 -996 0
396 -955 -1007 0
396 -966 -996 0
397 -832 -885 0
397 -844 -873 0
397 -832 -926 0
397 -844 -914 0
397 -832 -967 0
397 -844 -955 0
397 -832 -1008 0
397 -844 -996 0
397 -873 -926 0
397 -885 -914 0
397 -873 -967 0
397 -885 -955 0
397 -873 -1008 0
397 -885 -996 0
397 -914 -967 0
397 -926 -955 0
397 -914 -1008 0
397 -926 -996 0
397 -955 -1008 0
397 -967 -996 0
398 -832 -886 0
398 -845 -873 0
398 -832 -927 0
398 -845 -914 0
398 -832 -968 0
398 -845 -955 0
398 -832 -1009 0
398 -845 -996 0
398 -873 -927 0
398 -886 -914 0
398 -873 -968 0
398 -886 -955 0
398 -873 -1009 0
398 -886 -996 0
398 -914 -968 0
398 -927 -955 0
398 -914 -1009 0
398 -927 -996 0
398 -955 -1009 0
398 -968 -996 0
399 -832 -887 0
399 -846 -873 0
399 -832 -928 0
399 -846 -914 0
399 -832 -969 0
399 -846 -955 0
399 -832 -1010 0
399 -846 -996 0
399 -873 -928 0
399 -887 -914 0
399 -873 -969 0
399 -887 -955 0
399 -873 -1010 0
399 -887 -996 0
399 -914 -969 0
399 -928 -955 0
399 -914 -1010 0
399 -928 -996 0
399 -955 -1010 0
399 -969 -996 0
400 -832 -888 0
400 -847 -873 0
400 -832 -929 0
400 -847 -914 0
400 -832 -970 0
400 -847 -955 0
400 -832 -1011 0
400 -847 -996 0
400 -873 -929 0
400 -888 -914 0
400 -873 -970 0
400 -888 -955 0
400 -873 -1011 0
400 -888 -996 0
400 -914 -970 0
400 -929 -955 0
400 -914 -1011 0
400 -929 -996 0
400 -955 -1011 0
400 -970 -996 0
401 -832 -889 0
401 -848 -873 0
401 -832 -930 0
401 -848 -914 0
401 -832 -971 0
401 -848 -955 0
401 -832 -1012 0
401 -848 -996 0
401 -873 -930 0
401 -889 -914 0
401 -873 -971 0
401 -889 -955 0
401 -873 -1012 0
401 -889 -996 0
401 -914 -971 0
401 -930 -955 0
401 -914 -1012 0
401 -930 -996 0
401 -955 -1012 0
401 -971 -996 0
402 -832 -890 0
402 -849 -873 0
402 -832 -931 0
402 -849 -914 0
402 -832 -972 0
402 -849 -955 0
402 -832 -1013 0
402 -849 -996 0
402 -873 -931 0
402 -890 -914 0
402 -873 -972 0
402 -890 -955 0
402 -873 -1013 0
402 -890 -996 0
402 -914 -972 0
402 -931 -955 0
402 -914 -1013 0
402 -931 -996 0
402 -955 -1013 0
402 -972 -996 0
403 -832 -891 0
403 -850 -873 0
403 -832 -932 0
403 -850 -914 0
403 -832 -973 0
403 -850 -955 0
403 -832 -1014 0
403 -850 -996 0
403 -873 -932 0
403 -891 -914 0
403 -873 -973 0
403 -891 -955 0
403 -873 -1014 0
403 -891 -996 0
403 -914 -973 0
403 -932 -955 0
403 -914 -1014 0
403 -932 -996 0
403 -955 -1014 0
403 -973 -996 0
404 -832 -892 0
404 -851 -873 0
404 -832 -933 0
404 -851 -914 0
404 -832 -974 0
404 -851 -955 0
404 -832 -1015 0
404 -851 -996 0
404 -873 -933 0
404 -892 -914 0
404 -873 -974 0
404 -892 -955 0
404 -873 -1015 0
404 -892 -996 0
404 -914 -974 0
404 -933 -955 0
404 -914 -1015 0
404 -933 -996 0
404 -955 -1015 0
404 -974 -996 0
405 -832 -893 0
405 -852 -873 0
405 -832 -934 0
405 -852 -914 0
405 -832 -975 0
405 -852 -955 0
405 -832 -1016 0
405 -852 -996 0
405 -873 -934 0
405 -893 -914 0
405 -873 -975 0
405 -893 -955 0
405 -873 -1016 0
405 -893 -996 0
405 -914 -975 0
405 -934 -955 0
405 -914 -1016 0
405 -934 -996 0
405 -955 -1016 0
405 -975 -996 0
406 -832 -894 0
406 -853 -873 0
406 -832 -935 0
406 -853 -914 0
406 -832 -976 0
406 -853 -955 0
406 -832 -1017 0
406 -853 -996 0
406 -873 -935 0
406 -894 -914 0
406 -873 -976 0
406 -894 -955 0
406 -873 -1017 0
406 -894 -996 0
406 -914 -976 0
406 -935 -955 0
406 -914 -1017 0
406 -935 -996 0
406 -955 -1017 0
406 -976 -996 0
407 -832 -895 0
407 -854 -873 0
407 -832 -936 0
407 -854 -914 0
407 -832 -977 0
407 -854 -955 0
407 -832 -1018 0
407 -854 -996 0
407 -873 -936 0
407 -895 -914 0
407 -873 -977 0
407 -895 -955 0
407 -873 -1018 0
407 -895 -996 0
407 -914 -977 0
407 -936 -955 0
407 -914 -1018 0
407 -936 -996 0
407 -955 -1018 0
407 -977 -996 0
408 -832 -896 0
408 -855 -873 0
408 -832 -937 0
408 -855 -914 0
408 -832 -978 0
408 -855 -955 0
408 -832 -1019 0
408 -855 -996 0
408 -873 -937 0
408 -896 -914 0
408 -873 -978 0
408 -896 -955 0
408 -873 -1019 0
408 -896 -996 0
408 -914 -978 0
408 -937 -955 0
408 -914 -1019 0
408 -937 -996 0
408 -955 -1019 0
408 -978 -996 0
409 -832 -897 0
409 -856 -873 0
409 -832 -938 0
409 -856 -914 0
409 -832 -979 0
409 -856 -955 0
409 -832 -1020 0
409 -856 -996 0
409 -873 -938 0
409 -897 -914 0
409 -873 -979 0
409 -897 -955 0
409 -873 -1020 0
409 -897 -996 0
409 -914 -979 0
409 -938 -955 0
409 -914 -1020 0
409 -938 -996 0
409 -955 -1020 0
409 -979 -996 0
410 -832 -898 0
410 -857 -873 0
410 -832 -939 0
410 -857 -914 0
410 -832 -980 0
410 -857 -955 0
410 -832 -1021 0
410 -857 -996 0
410 -873 -939 0
410 -898 -914 0
410 -873 -980 0
410 -898 -955 0
410 -873 -1021 0
410 -898 -996 0
410 -914 -980 0
410 -939 -955 0
410 -914 -1021 0
410 -939 -996 0
410 -955 -1021 0
410 -980 -996 0
411 -832 -899 0
411 -858 -873 0
411 -832 -940 0
411 -858 -914 0
411 -832 -981 0
411 -858 -955 0
411 -832 -1022 0
411 -858 -996 0
411 -873 -940 0
411 -899 -914 0
411 -873 -981 0
411 -899 -955 0
411 -873 -1022 0
411 -899 -996 0
411 -914 -981 0
411 -940 -955 0
411 -914 -1022 0
411 -940 -996 0
411 -955 -1022 0
411 -981 -996 0
412 -832 -900 0
412 -859 -873 0
412 -832 -941 0
412 -859 -914 0
412 -832 -982 0
412 -859 -955 0
412 -832 -1023 0
412 -859 -996 0
412 -873 -941 0
412 -900 -914 0
412 -873 -982 0
412 -900 -955 0
412 -873 -1023 0
412 -900 -996 0
412 -914 -982 0
412 -941 -955 0
412 -914 -1023 0
412 -941 -996 0
412 -955 -1023 0
412 -982 -996 0
413 -832 -901 0
413 -860 -873 0
413 -832 -942 0
413 -860 -914 0
413 -832 -983 0
413 -860 -955 0
413 -832 -1024 0
413 -860 -996 0
413 -873 -942 0
413 -901 -914 0
413 -873 -983 0
413 -901 -955 0
413 -873 -1024 0
413 -901 -996 0
413 -914 -983 0
413 -942 -955 0
413 -914 -1024 0
413 -942 -996 0
413 -955 -1024 0
413 -983 -996 0
414 -832 -902 0
414 -861 -873 0
414 -832 -943 0
414 -861 -914 0
414 -832 -984 0
414 -861 -955 0
414 -832 -1025 0
414 -861 -996 0
414 -873 -943 0
414 -902 -914 0
414 -873 -984 0
414 -902 -955 0
414 -873 -1025 0
414 -902 -996 0
414 -914 -984 0
414 -943 -955 0
414 -914 -1025 0
414 -943 -996 0
414 -955 -1025 0
414 -984 -996 0
415 -833 -875 0
415 -834 -874 0
415 -833 -916 0
415 -834 -915 0
415 -833 -957 0
415 -834 -956 0
415 -833 -998 0
415 -834 -997 0
415 -874 -916 0
415 -875 -915 0
415 -874 -957 0
415 -875 -956 0
415 -874 -998 0
415 -875 -997 0
415 -915 -957 0
415 -916 -956 0
415 -915 -998 0
415 -916 -997 0
415 -956 -998 0
415 -957 -997 0
416 -833 -876 0
416 -835 -874 0
416 -833 -917 0
416 -835 -915 0
416 -833 -958 0
416 -835 -956 0
416 -833 -999 0
416 -835 -997 0
416 -874 -917 0
416 -876 -915 0
416 -874 -958 0
416 -876 -956 0
416 -874 -999 0
416 -876 -997 0
416 -915 -958 0
416 -917 -956 0
416 -915 -999 0
416 -917 -997 0
416 -956 -999 0
416 -958 -997 0
417 -833 -877 0
417 -836 -874 0
417 -833 -918 0
417 -836 -915 0
417 -833 -959 0
417 -836 -956 0
417 -833 -1000 0
417 -836 -997 0
417 -874 -918 0
417 -877 -915 0
417 -874 -959 0
417 -877 -956 0
417 -874 -1000 0
417 -877 -997 0
417 -915 -959 0
417 -918 -956 0
417 -915 -1000 0
417 -918 -997 0
417 -956 -1000 0
417 -959 -997 0
418 -833 -878 0
418 -837 -874 0
418 -833 -919 0
418 -837 -915 0
418 -833 -960 0
418 -837 -956 0
418 -833 -1001 0
418 -837 -997 0
418 -874 -919 0
418 -878 -915 0
418 -874 -960 0
418 -878 -956 0
418 -874 -1001 0
418 -878 -997 0
418 -915 -960 0
418 -919 -956 0
418 -915 -1001 0
418 -919 -997 0
418 -956 -1001 0
418 -960 -997 0
419 -833 -879 0
419 -838 -874 0
419 -833 -920 0
419 -838 -915 0
419 -833 -961 0
419 -838 -956 0
419 -833 -1002 0
419 -838 -997 0
419 -874 -920 0
419 -879 -915 0
419 -874 -961 0
419 -879 -956 0
419 -874 -1002 0
419 -879 -997 0
419 -915 -961 0
419 -920 -956 0
419 -915 -1002 0
419 -920 -997 0
419 -956 -1002 0
419 -961 -997 0
420 -833 -880 0
420 -839 -874 0
420 -833 -921 0
420 -839 -915 0
420 -833 -962 0
420 -839 -956 0
420 -833 -1003 0
420 -839 -997 0
420 -874 -921 0
420 -880 -915 0
420 -874 -962 0
420 -880 -956 0
420 -874 -1003 0
420 -880 -997 0
420 -915 -962 0
420 -921 -956 0
420 -915 -1003 0
420 -921 -997 0
420 -956 -1003 0
420 -962 -997 0
421 -833 -881 0
421 -840 -874 0
421 -833 -922 0
421 -840 -915 0
421 -833 -963 0
421 -840 -956 0
421 -833 -1004 0
421 -840 -997 0
421 -874 -922 0
421 -881 -915 0
421 -874 -963 0
421 -881 -956 0
421 -874 -1004 0
421 -881 -997 0
421 -915 -963 0
421 -922 -956 0
421 -915 -1004 0
421 -922 -997 0
421 -956 -1004 0
421 -963 -997 0
422 -833 -882 0
422 -841 -874 0
422 -833 -923 0
422 -841 -915 0
422 -833 -964 0
422 -841 -956 0
422 -833 -1005 0
422 -841 -997 0
422 -874 -923 0
422 -882 -915 0
422 -874 -964 0
422 -882 -956 0
422 -874 -1005 0
422 -882 -997 0
422 -915 -964 0
422 -923 -956 0
422 -915 -1005 0
422 -923 -997 0
422 -956 -1005 0
422 -964 -997 0
423 -833 -883 0
423 -842 -874 0
423 -833 -924 0
423 -842 -915 0
423 -833 -965 0
423 -842 -956 0
423 -833 -1006 0
423 -842 -997 0
423 -874 -924 0
423 -883 -915 0
423 -874 -965 0
423 -883 -956 0
423 -874 -1006 0
423 -883 -997 0
423 -915 -965 0
423 -924 -956 0
423 -915 -1006 0
423 -924 -997 0
423 -956 -1006 0
423 -965 -997 0
424 -833 -884 0
424 -843 -874 0
424 -833 -925 0
424 -843 -915 0
424 -833 -966 0
424 -843 -956 0
424 -833 -1007 0
424 -843 -997 0
424 -874 -925 0
424 -884 -915 0
424 -874 -966 0
424 -884 -956 0
424 -874 -1007 0
424 -884 -997 0
424 -915 -966 0
424 -925 -956 0
424 -915 -1007 0
424 -925 -997 0
424 -956 -1007 0
424 -966 -997 0
425 -833 -885 0
425 -844 -874 0
425 -833 -926 0
425 -844 -915 0
425 -833 -967 0
425 -844 -956 0
425 -833 -1008 0
425 -844 -997 0
425 -874 -926 0
425 -885 -915 0
425 -874 -967 0
425 -885 -956 0
425 -874 -1008 0
425 -885 -997 0
425 -915 -967 0
425 -926 -956 0
425 -915 -1008 0
425 -926 -997 0
425 -956 -1008 0
425 -967 -997 0
426 -833 -886 0
426 -845 -874 0
426 -833 -927 0
426 -845 -915 0
426 -833 -968 0
426 -845 -956 0
426 -833 -1009 0
426 -845 -997 0
426 -874 -927 0
426 -886 -915 0
426 -874 -968 0
426 -886 -956 0
426 -874 -1009 0
426 -886 -997 0
426 -915 -968 0
426 -927 -956 0
426 -915 -1009 0
426 -927 -997 0
426 -956 -1009 0
426 -968 -997 0
427 -833 -887 0
427 -846 -874 0
427 -833 -928 0
427 -846 -915 0
427 -833 -969 0
427 -846 -956 0
427 -833 -1010 0
427 -846 -997 0
427 -874 -928 0
427 -887 -915 0
427 -874 -969 0
427 -887 -956 0
427 -874 -1010 0
427 -887 -997 0
427 -915 -969 0
427 -928 -956 0
427 -915 -1010 0
427 -928 -997 0
427 -956 -1010 0
427 -969 -997 0
428 -833 -888 0
428 -847 -874 0
428 -833 -929 0
428 -847 -915 0
428 -833 -970 0
428 -847 -956 0
428 -833 -1011 0
428 -847 -997 0
428 -874 -929 0
428 -888 -915 0
428 -874 -970 0
428 -888 -956 0
428 -874 -1011 0
428 -888 -997 0
428 -915 -970 0
428 -929 -956 0
428 -915 -1011 0
428 -929 -997 0
428 -956 -1011 0
428 -970 -997 0
429 -833 -889 0
429 -848 -874 0
429 -833 -930 0
429 -848 -915 0
429 -833 -971 0
429 -848 -956 0
429 -833 -1012 0
429 -848 -997 0
429 -874 -930 0
429 -889 -915 0
429 -874 -971 0
429 -889 -956 0
429 -874 -1012 0
429 -889 -997 0
429 -915 -971 0
429 -930 -956 0
429 -915 -1012 0
429 -930 -997 0
429 -956 -1012 0
429 -971 -997 0
430 -833 -890 0
430 -849 -874 0
430 -833 -931 0
430 -849 -915 0
430 -833 -972 0
430 -849 -956 0
430 -833 -1013 0
430 -849 -997 0
430 -874 -931 0
430 -890 -915 0
430 -874 -972 0
430 -890 -956 0
430 -874 -1013 0
430 -890 -997 0
430 -915 -972 0
430 -931 -956 0
430 -915 -1013 0
430 -931 -997 0
430 -956 -1013 0
430 -972 -997 0
431 -833 -891 0
431 -850 -874 0
431 -833 -932 0
431 -850 -915 0
431 -833 -973 0
431 -850 -956 0
431 -833 -1014 0
431 -850 -997 0
431 -874 -932 0
431 -891 -915 0
431 -874 -973 0
431 -891 -956 0
431 -874 -1014 0
431 -891 -997 0
431 -915 -973 0
431 -932 -956 0
431 -915 -1014 0
431 -932 -997 0
431 -956 -1014 0
431 -973 -997 0
432 -833 -892 0
432 -851 -874 0
432 -833 -933 0
432 -851 -915 0
432 -833 -974 0
432 -851 -956 0
432 -833 -1015 0
432 -851 -997 0
432 -874 -933 0
432 -892 -915 0
432 -874 -974 0
432 -892 -956 0
432 -874 -1015 0
432 -892 -997 0
432 -915 -974 0
432 -933 -956 0
432 -915 -1015 0
432 -933 -997 0
432 -956 -1015 0
432 -974 -997 0
433 -833 -893 0
433 -852 -874 0
433 -833 -934 0
433 -852 -915 0
433 -833 -975 0
433 -852 -956 0
433 -833 -1016 0
433 -852 -997 0
433 -874 -934 0
433 -893 -915 0
433 -874 -975 0
433 -893 -956 0
433 -874 -1016 0
433 -893 -997 0
433 -915 -975 0
433 -934 -956 0
433 -915 -1016 0
433 -934 -997 0
433 -956 -1016 0
433 -975 -997 0
434 -833 -894 0
434 -853 -874 0
434 -833 -935 0
434 -853 -915 0
434 -833 -976 0
434 -853 -956 0
434 -833 -1017 0
434 -853 -997 0
434 -874 -935 0
434 -894 -915 0
434 -874 -976 0
434 -894 -956 0
434 -874 -1017 0
434 -894 -997 0
434 -915 -976 0
434 -935 -956 0
434 -915 -1017 0
434 -935 -997 0
434 -956 -1017 0
434 -976 -997 0
435 -833 -895 0
435 -854 -874 0
435 -833 -936 0
435 -854 -915 0
435 -833 -977 0
435 -854 -956 0
435 -833 -1018 0
435 -854 -997 0
435 -874 -936 0
435 -895 -915 0
435 -874 -977 0
435 -895 -956 0
435 -874 -1018 0
435 -895 -997 0
435 -915 -977 0
435 -936 -956 0
435 -915 -1018 0
435 -936 -997 0
435 -956 -1018 0
435 -977 -997 0
436 -833 -896 0
436 -855 -874 0
436 -833 -937 0
436 -855 -915 0
436 -833 -978 0
436 -855 -956 0
436 -833 -1019 0
436 -855 -997 0
436 -874 -937 0
436 -896 -915 0
436 -874 -978 0
436 -896 -956 0
436 -874 -1019 0
436 -896 -997 0
436 -915 -978 0
436 -937 -956 0
436 -915 -1019 0
436 -937 -997 0
436 -956 -1019 0
436 -978 -997 0
437 -833 -897 0
437 -856 -874 0
437 -833 -938 0
437 -856 -915 0
437 -833 -979 0
437 -856 -956 0
437 -833 -1020 0
437 -856 -997 0
437 -874 -938 0
437 -897 -915 0
437 -874 -979 0
437 -897 -956 0
437 -874 -1020 0
437 -897 -997 0
437 -915 -979 0
437 -938 -956 0
437 -915 -1020 0
437 -938 -997 0
437 -956 -1020 0
437 -979 -997 0
438 -833 -898 0
438 -857 -874 0
438 -833 -939 0
438 -857 -915 0
438 -833 -980 0
438 -857 -956 0
438 -833 -1021 0
438 -857 -997 0
438 -874 -939 0
438 -898 -915 0
438 -874 -980 0
438 -898 -956 0
438 -874 -1021 0
438 -898 -997 0
438 -915 -980 0
438 -939 -956 0
438 -915 -1021 0
438 -939 -997 0
438 -956 -1021 0
438 -980 -997 0
439 -833 -899 0
439 -858 -874 0
439 -833 -940 0
439 -858 -915 0
439 -833 -981 0
439 -858 -956 0
439 -833 -1022 0
439 -858 -997 0
439 -874 -940 0
439 -899 -915 0
439 -874 -981 0
439 -899 -956 0
439 -874 -1022 0
439 -899 -997 0
439 -915 -981 0
439 -940 -956 0
439 -915 -1022 0
439 -940 -997 0
439 -956 -1022 0
439 -981 -997 0
440 -833 -900 0
440 -859 -874 0
440 -833 -941 0
440 -859 -915 0
440 -833 -982 0
440 -859 -956 0
440 -833 -1023 0
440 -859 -997 0
440 -874 -941 0
440 -900 -915 0
440 -874 -982 0
440 -900 -956 0
440 -874 -1023 0
440 -900 -997 0
440 -915 -982 0
440 -941 -956 0
440 -915 -1023 0
440 -941 -997 0
440 -956 -1023 0
440 -982 -997 0
441 -833 -901 0
441 -860 -874 0
441 -833 -942 0
441 -860 -915 0
441 -833 -983 0
441 -860 -956 0
441 -833 -1024 0
441 -860 -997 0
441 -874 -942 0
441 -901 -915 0
441 -874 -983 0
441 -901 -956 0
441 -874 -1024 0
441 -901 -997 0
441 -915 -983 0
441 -942 -956 0
441 -915 -1024 0
441 -942 -997 0
441 -956 -1024 0
441 -983 -997 0
442 -833 -902 0
442 -861 -874 0
442 -833 -943 0
442 -861 -915 0
442 -833 -984 0
442 -861 -956 0
442 -833 -1025 0
442 -861 -997 0
442 -874 -943 0
442 -902 -915 0
442 -874 -984 0
442 -902 -956 0
442 -874 -1025 0
442 -902 -997 0
442 -915 -984 0
442 -943 -956 0
442 -915 -1025 0
442 -943 -997 0
442 -956 -1025 0
442 -984 -997 0
443 -834 -876 0
443 -835 -875 0
443 -834 -917 0
443 -835 -916 0
443 -834 -958 0
443 -835 -957 0
443 -834 -999 0
443 -835 -998 0
443 -875 -917 0
443 -876 -916 0
443 -875 -958 0
443 -876 -957 0
443 -875 -999 0
443 -876 -998 0
443 -916 -958 0
443 -917 -957 0
443 -916 -999 0
443 -917 -998 0
443 -957 -999 0
443 -958 -998 0
444 -834 -877 0
444 -836 -875 0
444 -834 -918 0
444 -836 -916 0
444 -834 -959 0
444 -836 -957 0
444 -834 -1000 0
444 -836 -998 0
444 -875 -918 0
444 -877 -916 0
444 -875 -959 0
444 -877 -957 0
444 -875 -1000 0
444 -877 -998 0
444 -916 -959 0
444 -918 -957 0
444 -916 -1000 0
444 -918 -998 0
444 -957 -1000 0
444 -959 -998 0
445 -834 -878 0
445 -837 -875 0
445 -834 -919 0
445 -837 -916 0
445 -834 -960 0
445 -837 -957 0
445 -834 -1001 0
445 -837 -998 0
445 -875 -919 0
445 -878 -916 0
445 -875 -960 0
445 -878 -957 0
445 -875 -1001 0
445 -878 -998 0
445 -916 -960 0
445 -919 -957 0
445 -916 -1001 0
445 -919 -998 0
445 -957 -1001 0
445 -960 -998 0
446 -834 -879 0
446 -838 -875 0
446 -834 -920 0
446 -838 -916 0
446 -834 -961 0
446 -838 -957 0
446 -834 -1002 0
446 -838 -998 0
446 -875 -920 0
446 -879 -916 0
446 -875 -961 0
446 -879 -957 0
446 -875 -1002 0
446 -879 -998 0
446 -916 -961 0
446 -920 -957 0
446 -916 -1002 0
446 -920 -998 0
446 -957 -1002 0
446 -961 -998 0
447 -834 -880 0
447 -839 -875 0
447 -834 -921 0
447 -839 -916 0
447 -834 -962 0
447 -839 -957 0
447 -834 -1003 0
447 -839 -998 0
447 -875 -921 0
447 -880 -916 0
447 -875 -962 0
447 -880 -957 0
447 -875 -1003 0
447 -880 -998 0
447 -916 -962 0
447 -921 -957 0
447 -916 -1003 0
447 -921 -998 0
447 -957 -1003 0
447 -962 -998 0
448 -834 -881 0
448 -840 -875 0
448 -834 -922 0
448 -840 -916 0
448 -834 -963 0
448 -840 -957 0
448 -834 -1004 0
448 -840 -998 0
448 -875 -922 0
448 -881 -916 0
448 -875 -963 0
448 -881 -957 0
448 -875 -1004 0
448 -881 -998 0
448 -916 -963 0
448 -922 -957 0
448 -916 -1004 0
448 -922 -998 0
448 -957 -1004 0
448 -963 -998 0
449 -834 -882 0
449 -841 -875 0
449 -834 -923 0
449 -841 -916 0
449 -834 -964 0
449 -841 -957 0
449 -834 -1005 0
449 -841 -998 0
449 -875 -923 0
449 -882 -916 0
449 -875 -964 0
449 -882 -957 0
449 -875 -1005 0
449 -882 -998 0
449 -916 -964 0
449 -923 -957 0
449 -916 -1005 0
449 -923 -998 0
449 -957 -1005 0
449 -964 -998 0
450 -834 -883 0
450 -842 -875 0
450 -834 -924 0
450 -842 -916 0
450 -834 -965 0
450 -842 -957 0
450 -834 -1006 0
450 -842 -998 0
450 -875 -924 0
450 -883 -916 0
450 -875 -965 0
450 -883 -957 0
450 -875 -1006 0
450 -883 -998 0
450 -916 -965 0
450 -924 -957 0
450 -916 -1006 0
450 -924 -998 0
450 -957 -1006 0
450 -965 -998 0
451 -834 -884 0
451 -843 -875 0
451 -834 -925 0
451 -843 -916 0
451 -834 -966 0
451 -843 -957 0
451 -834 -1007 0
451 -843 -998 0
451 -875 -925 0
451 -884 -916 0
451 -875 -966 0
451 -884 -957 0
451 -875 -1007 0
451 -884 -998 0
451 -916 -966 0
451 -925 -957 0
451 -916 -1007 0
451 -925 -998 0
451 -957 -1007 0
451 -966 -998 0
452 -834 -885 0
452 -844 -875 0
452 -834 -926 0
452 -844 -916 0
452 -834 -967 0
452 -844 -957 0
452 -834 -1008 0
452 -844 -998 0
452 -875 -926 0
452 -885 -916 0
452 -875 -967 0
452 -885 -957 0
452 -875 -1008 0
452 -885 -998 0
452 -916 -967 0
452 -926 -957 0
452 -916 -1008 0
452 -926 -998 0
452 -957 -1008 0
452 -967 -998 0
453 -834 -886 0
453 -845 -875 0
453 -834 -927 0
453 -845 -916 0
453 -834 -968 0
453 -845 -957 0
453 -834 -1009 0
453 -845 -998 0
453 -875 -927 0
453 -886 -916 0
453 -875 -968 0
453 -886 -957 0
453 -875 -1009 0
453 -886 -998 0
453 -916 -968 0
453 -927 -957 0
453 -916 -1009 0
453 -927 -998 0
453 -957 -1009 0
453 -968 -998 0
454 -834 -887 0
454 -846 -875 0
454 -834 -928 0
454 -846 -916 0
454 -834 -969 0
454 -846 -957 0
454 -834 -1010 0
454 -846 -998 0
454 -875 -928 0
454 -887 -916 0
454 -875 -969 0
454 -887 -957 0
454 -875 -1010 0
454 -887 -998 0
454 -916 -969 0
454 -928 -957 0
454 -916 -1010 0
454 -928 -998 0
454 -957 -1010 0
454 -969 -998 0
455 -834 -888 0
455 -847 -875 0
455 -834 -929 0
455 -847 -916 0
455 -834 -970 0
455 -847 -957 0
455 -834 -1011 0
455 -847 -998 0
455 -875 -929 0
455 -888 -916 0
455 -875 -970 0
455 -888 -957 0
455 -875 -1011 0
455 -888 -998 0
455 -916 -970 0
455 -929 -957 0
455 -916 -1011 0
455 -929 -998 0
455 -957 -1011 0
455 -970 -998 0
456 -834 -889 0
456 -848 -875 0
456 -834 -930 0
456 -848 -916 0
456 -834 -971 0
456 -848 -957 0
456 -834 -1012 0
456 -848 -998 0
456 -875 -930 0
456 -889 -916 0
456 -875 -971 0
456 -889 -957 0
456 -875 -1012 0
456 -889 -998 0
456 -916 -971 0
456 -930 -957 0
456 -916 -1012 0
456 -930 -998 0
456 -957 -1012 0
456 -971 -998 0
457 -834 -890 0
457 -849 -875 0
457 -834 -931 0
457 -849 -916 0
457 -834 -972 0
457 -849 -957 0
457 -834 -1013 0
457 -849 -998 0
457 -875 -931 0
457 -890 -916 0
457 -875 -972 0
457 -890 -957 0
457 -875 -1013 0
457 -890 -998 0
457 -916 -972 0
457 -931 -957 0
457 -916 -1013 0
457 -931 -998 0
457 -957 -1013 0
457 -972 -998 0
458 -834 -891 0
458 -850 -875 0
458 -834 -932 0
458 -850 -916 0
458 -834 -973 0
458 -850 -957 0
458 -834 -1014 0
458 -850 -998 0
458 -875 -932 0
458 -891 -916 0
458 -875 -973 0
458 -891 -957 0
458 -875 -1014 0
458 -891 -998 0
458 -916 -973 0
458 -932 -957 0
458 -916 -1014 0
458 -932 -998 0
458 -957 -1014 0
458 -973 -998 0
459 -834 -892 0
459 -851 -875 0
459 -834 -933 0
459 -851 -916 0
459 -834 -974 0
459 -851 -957 0
459 -834 -1015 0
459 -851 -998 0
459 -875 -933 0
459 -892 -916 0
459 -875 -974 0
459 -892 -957 0
459 -875 -1015 0
459 -892 -998 0
459 -916 -974 0
459 -933 -957 0
459 -916 -1015 0
459 -933 -998 0
459 -957 -1015 0
459 -974 -998 0
460 -834 -893 0
460 -852 -875 0
460 -834 -934 0
460 -852 -916 0
460 -834 -975 0
460 -852 -957 0
460 -834 -1016 0
460 -852 -998 0
460 -875 -934 0
460 -893 -916 0
460 -875 -975 0
460 -893 -957 0
460 -875 -1016 0
460 -893 -998 0
460 -916 -975 0
460 -934 -957 0
460 -916 -1016 0
460 -934 -998 0
460 -957 -1016 0
460 -975 -998 0
461 -834 -894 0
461 -853 -875 0
461 -834 -935 0
461 -853 -916 0
461 -834 -976 0
461 -853 -957 0
461 -834 -1017 0
461 -853 -998 0
461 -875 -935 0
461 -894 -916 0
461 -875 -976 0
461 -894 -957 0
461 -875 -1017 0
461 -894 -998 0
461 -916 -976 0
461 -935 -957 0
461 -916 -1017 0
461 -935 -998 0
461 -957 -1017 0
461 -976 -998 0
462 -834 -895 0
462 -854 -875 0
462 -834 -936 0
462 -854 -916 0
462 -834 -977 0
462 -854 -957 0
462 -834 -1018 0
462 -854 -998 0
462 -875 -936 0
462 -895 -916 0
462 -875 -977 0
462 -895 -957 0
462 -875 -1018 0
462 -895 -998 0
462 -916 -977 0
462 -936 -957 0
462 -916 -1018 0
462 -936 -998 0
462 -957 -1018 0
462 -977 -998 0
463 -834 -896 0
463 -855 -875 0
463 -834 -937 0
463 -855 -916 0
463 -834 -978 0
463 -855 -957 0
463 -834 -1019 0
463 -855 -998 0
463 -875 -937 0
463 -896 -916 0
463 -875 -978 0
463 -896 -957 0
463 -875 -1019 0
463 -896 -998 0
463 -916 -978 0
463 -937 -957 0
463 -916 -1019 0
463 -937 -998 0
463 -957 -1019 0
463 -978 -998 0
464 -834 -897 0
464 -856 -875 0
464 -834 -938 0
464 -856 -916 0
464 -834 -979 0
464 -856 -957 0
464 -834 -1020 0
464 -856 -998 0
464 -875 -938 0
464 -897 -916 0
464 -875 -979 0
464 -897 -957 0
464 -875 -1020 0
464 -897 -998 0
464 -916 -979 0
464 -938 -957 0
464 -916 -1020 0
464 -938 -998 0
464 -957 -1020 0
464 -979 -998 0
465 -834 -898 0
465 -857 -875 0
465 -834 -939 0
465 -857 -916 0
465 -834 -980 0
465 -857 -957 0
465 -834 -1021 0
465 -857 -998 0
465 -875 -939 0
465 -898 -916 0
465 -875 -980 0
465 -898 -957 0
465 -875 -1021 0
465 -898 -998 0
465 -916 -980 0
465 -939 -957 0
465 -916 -1021 0
465 -939 -998 0
465 -957 -1021 0
465 -980 -998 0
466 -834 -899 0
466 -858 -875 0
466 -834 -940 0
466 -858 -916 0
466 -834 -981 0
466 -858 -957 0
466 -834 -1022 0
466 -858 -998 0
466 -875 -940 0
466 -899 -916 0
466 -875 -981 0
466 -899 -957 0
466 -875 -1022 0
466 -899 -998 0
466 -916 -981 0
466 -940 -957 0
466 -916 -1022 0
466 -940 -998 0
466 -957 -1022 0
466 -981 -998 0
467 -834 -900 0
467 -859 -875 0
467 -834 -941 0
467 -859 -916 0
467 -834 -982 0
467 -859 -957 0
467 -834 -1023 0
467 -859 -998 0
467 -875 -941 0
467 -900 -916 0
467 -875 -982 0
467 -900 -957 0
467 -875 -1023 0
467 -900 -998 0
467 -916 -982 0
467 -941 -957 0
467 -916 -1023 0
467 -941 -998 0
467 -957 -1023 0
467 -982 -998 0
468 -834 -901 0
468 -860 -875 0
468 -834 -942 0
468 -860 -916 0
468 -834 -983 0
468 -860 -957 0
468 -834 -1024 0
468 -860 -998 0
468 -875 -942 0
468 -901 -916 0
468 -875 -983 0
468 -901 -957 0
468 -875 -1024 0
468 -901 -998 0
468 -916 -983 0
468 -942 -957 0
468 -916 -1024 0
468 -942 -998 0
468 -957 -1024 0
468 -983 -998 0
469 -834 -902 0
469 -861 -875 0
469 -834 -943 0
469 -861 -916 0
469 -834 -984 0
469 -861 -957 0
469 -834 -1025 0
469 -861 -998 0
469 -875 -943 0
469 -902 -916 0
469 -875 -984 0
469 -902 -957 0
469 -875 -1025 0
469 -902 -998 0
469 -916 -984 0
469 -943 -957 0
469 -916 -1025 0
469 -943 -998 0
469 -957 -1025 0
469 -984 -998 0
470 -835 -877 0
470 -836 -876 0
470 -835 -918 0
470 -836 -917 0
470 -835 -959 0
470 -836 -958 0
470 -835 -1000 0
470 -836 -999 0
470 -876 -918 0
470 -877 -917 0
470 -876 -959 0
470 -877 -958 0
470 -876 -1000 0
470 -877 -999 0
470 -917 -959 0
470 -918 -958 0
470 -917 -1000 0
470 -918 -999 0
470 -958 -1000 0
470 -959 -999 0
471 -835 -878 0
471 -837 -876 0
471 -835 -919 0
471 -837 -917 0
471 -835 -960 0
471 -837 -958 0
471 -835 -1001 0
471 -837 -999 0
471 -876 -919 0
471 -878 -917 0
471 -876 -960 0
471 -878 -958 0
471 -876 -1001 0
471 -878 -999 0
471 -917 -960 0
471 -919 -958 0
471 -917 -1001 0
471 -919 -999 0
471 -958 -1001 0
471 -960 -999 0
472 -835 -879 0
472 -838 -876 0
472 -835 -920 0
472 -838 -917 0
472 -835 -961 0
472 -838 -958 0
472 -835 -1002 0
472 -838 -999 0
472 -876 -920 0
472 -879 -917 0
472 -876 -961 0
472 -879 -958 0
472 -876 -1002 0
472 -879 -999 0
472 -917 -961 0
472 -920 -958 0
472 -917 -1002 0
472 -920 -999 0
472 -958 -1002 0
472 -961 -999 0
473 -835 -880 0
473 -839 -876 0
473 -835 -921 0
473 -839 -917 0
473 -835 -962 0
473 -839 -958 0
473 -835 -1003 0
473 -839 -999 0
473 -876 -921 0
473 -880 -917 0
473 -876 -962 0
473 -880 -958 0
473 -876 -1003 0
473 -880 -999 0
473 -917 -962 0
473 -921 -958 0
473 -917 -1003 0
473 -921 -999 0
473 -958 -1003 0
473 -962 -999 0
474 -835 -881 0
474 -840 -876 0
474 -835 -922 0
474 -840 -917 0
474 -835 -963 0
474 -840 -958 0
474 -835 -1004 0
474 -840 -999 0
474 -876 -922 0
474 -881 -917 0
474 -876 -963 0
474 -881 -958 0
474 -876 -1004 0
474 -881 -999 0
474 -917 -963 0
474 -922 -958 0
474 -917 -1004 0
474 -922 -999 0
474 -958 -1004 0
474 -963 -999 0
475 -835 -882 0
475 -841 -876 0
475 -835 -923 0
475 -841 -917 0
475 -835 -964 0
475 -841 -958 0
475 -835 -1005 0
475 -841 -999 0
475 -876 -923 0
475 -882 -917 0
475 -876 -964 0
475 -882 -958 0
475 -876 -1005 0
475 -882 -999 0
475 -917 -964 0
475 -923 -958 0
475 -917 -1005 0
475 -923 -999 0
475 -958 -1005 0
475 -964 -999 0
476 -835 -883 0
476 -842 -876 0
476 -835 -924 0
476 -842 -917 0
476 -835 -965 0
476 -842 -958 0
476 -835 -1006 0
476 -842 -999 0
476 -876 -924 0
476 -883 -917 0
476 -876 -965 0
476 -883 -958 0
476 -876 -1006 0
476 -883 -999 0
476 -917 -965 0
476 -924 -958 0
476 -917 -1006 0
476 -924 -999 0
476 -958 -1006 0
476 -965 -999 0
477 -835 -884 0
477 -843 -876 0
477 -835 -925 0
477 -843 -917 0
477 -835 -966 0
477 -843 -958 0
477 -835 -1007 0
477 -843 -999 0
477 -876 -925 0
477 -884 -917 0
477 -876 -966 0
477 -884 -958 0
477 -876 -1007 0
477 -884 -999 0
477 -917 -966 0
477 -925 -958 0
477 -917 -1007 0
477 -925 -999 0
477 -958 -1007 0
477 -966 -999 0
478 -835 -885 0
478 -844 -876 0
478 -835 -926 0
478 -844 -917 0
478 -835 -967 0
478 -844 -958 0
478 -835 -1008 0
478 -844 -999 0
478 -876 -926 0
478 -885 -917 0
478 -876 -967 0
478 -885 -958 0
478 -876 -1008 0
478 -885 -999 0
478 -917 -967 0
478 -926 -958 0
478 -917 -1008 0
478 -926 -999 0
478 -958 -1008 0
478 -967 -999 0
479 -835 -886 0
479 -845 -876 0
479 -835 -927 0
479 -845 -917 0
479 -835 -968 0
479 -845 -958 0
479 -835 -1009 0
479 -845 -999 0
479 -876 -927 0
479 -886 -917 0
479 -876 -968 0
479 -886 -958 0
479 -876 -1009 0
479 -886 -999 0
479 -917 -968 0
479 -927 -958 0
479 -917 -1009 0
479 -927 -999 0
479 -958 -1009 0
479 -968 -999 0
480 -835 -887 0
480 -846 -876 0
480 -835 -928 0
480 -846 -917 0
480 -835 -969 0
480 -846 -958 0
480 -835 -1010 0
480 -846 -999 0
480 -876 -928 0
480 -887 -917 0
480 -876 -969 0
480 -887 -958 0
480 -876 -1010 0
480 -887 -999 0
480 -917 -969 0
480 -928 -958 0
480 -917 -1010 0
480 -928 -999 0
480 -958 -1010 0
480 -969 -999 0
481 -835 -888 0
481 -847 -876 0
481 -835 -929 0
481 -847 -917 0
481 -835 -970 0
481 -847 -958 0
481 -835 -1011 0
481 -847 -999 0
481 -876 -929 0
481 -888 -917 0
481 -876 -970 0
481 -888 -958 0
481 -876 -1011 0
481 -888 -999 0
481 -917 -970 0
481 -929 -958 0
481 -917 -1011 0
481 -929 -999 0
481 -958 -1011 0
481 -970 -999 0
482 -835 -889 0
482 -848 -876 0
482 -835 -930 0
482 -848 -917 0
482 -835 -971 0
482 -848 -958 0
482 -835 -1012 0
482 -848 -999 0
482 -876 -930 0
482 -889 -917 0
482 -876 -971 0
482 -889 -958 0
482 -876 -1012 0
482 -889 -999 0
482 -917 -971 0
482 -930 -958 0
482 -917 -1012 0
482 -930 -999 0
482 -958 -1012 0
482 -971 -999 0
483 -835 -890 0
483 -849 -876 0
483 -835 -931 0
483 -849 -917 0
483 -835 -972 0
483 -849 -958 0
483 -835 -1013 0
483 -849 -999 0
483 -876 -931 0
483 -890 -917 0
483 -876 -972 0
483 -890 -958 0
483 -876 -1013 0
483 -890 -999 0
483 -917 -972 0
483 -931 -958 0
483 -917 -1013 0
483 -931 -999 0
483 -958 -1013 0
483 -972 -999 0
484 -835 -891 0
484 -850 -876 0
484 -835 -932 0
484 -850 -917 0
484 -835 -973 0
484 -850 -958 0
484 -835 -1014 0
484 -850 -999 0
484 -876 -932 0
484 -891 -917 0
484 -876 -973 0
484 -891 -958 0
484 -876 -1014 0
484 -891 -999 0
484 -917 -973 0
484 -932 -958 0
484 -917 -1014 0
484 -932 -999 0
484 -958 -1014 0
484 -973 -999 0
485 -835 -892 0
485 -851 -876 0
485 -835 -933 0
485 -851 -917 0
485 -835 -974 0
485 -851 -958 0
485 -835 -1015 0
485 -851 -999 0
485 -876 -933 0
485 -892 -917 0
485 -876 -974 0
485 -892 -958 0
485 -876 -1015 0
485 -892 -999 0
485 -917 -974 0
485 -933 -958 0
485 -917 -1015 0
485 -933 -999 0
485 -958 -1015 0
485 -974 -999 0
486 -835 -893 0
486 -852 -876 0
486 -835 -934 0
486 -852 -917 0
486 -835 -975 0
486 -852 -958 0
486 -835 -1016 0
486 -852 -999 0
486 -876 -934 0
486 -893 -917 0
486 -876 -975 0
486 -893 -958 0
486 -876 -1016 0
486 -893 -999 0
486 -917 -975 0
486 -934 -958 0
486 -917 -1016 0
486 -934 -999 0
486 -958 -1016 0
486 -975 -999 0
487 -835 -894 0
487 -853 -876 0
487 -835 -935 0
487 -853 -917 0
487 -835 -976 0
487 -853 -958 0
487 -835 -1017 0
487 -853 -999 0
487 -876 -935 0
487 -894 -917 0
487 -876 -976 0
487 -894 -958 0
487 -876 -1017 0
487 -894 -999 0
487 -917 -976 0
487 -935 -958 0
487 -917 -1017 0
487 -935 -999 0
487 -958 -1017 0
487 -976 -999 0
488 -835 -895 0
488 -854 -876 0
488 -835 -936 0
488 -854 -917 0
488 -835 -977 0
488 -854 -958 0
488 -835 -1018 0
488 -854 -999 0
488 -876 -936 0
488 -895 -917 0
488 -876 -977 0
488 -895 -958 0
488 -876 -1018 0
488 -895 -999 0
488 -917 -977 0
488 -936 -958 0
488 -917 -1018 0
488 -936 -999 0
488 -958 -1018 0
488 -977 -999 0
489 -835 -896 0
489 -855 -876 0
489 -835 -937 0
489 -855 -917 0
489 -835 -978 0
489 -855 -958 0
489 -835 -1019 0
489 -855 -999 0
489 -876 -937 0
489 -896 -917 0
489 -876 -978 0
489 -896 -958 0
489 -876 -1019 0
489 -896 -999 0
489 -917 -978 0
489 -937 -958 0
489 -917 -1019 0
489 -937 -999 0
489 -958 -1019 0
489 -978 -999 0
490 -835 -897 0
490 -856 -876 0
490 -835 -938 0
490 -856 -917 0
490 -835 -979 0
490 -856 -958 0
490 -835 -1020 0
490 -856 -999 0
490 -876 -938 0
490 -897 -917 0
490 -876 -979 0
490 -897 -958 0
490 -876 -1020 0
490 -897 -999 0
490 -917 -979 0
490 -938 -958 0
490 -917 -1020 0
490 -938 -999 0
490 -958 -1020 0
490 -979 -999 0
491 -835 -898 0
491 -857 -876 0
491 -835 -939 0
491 -857 -917 0
491 -835 -980 0
491 -857 -958 0
491 -835 -1021 0
491 -857 -999 0
491 -876 -939 0
491 -898 -917 0
491 -876 -980 0
491 -898 -958 0
491 -876 -1021 0
491 -898 -999 0
491 -917 -980 0
491 -939 -958 0
491 -917 -1021 0
491 -939 -999 0
491 -958 -1021 0
491 -980 -999 0
492 -835 -899 0
492 -858 -876 0
492 -835 -940 0
492 -858 -917 0
492 -835 -981 0
492 -858 -958 0
492 -835 -1022 0
492 -858 -999 0
492 -876 -940 0
492 -899 -917 0
492 -876 -981 0
492 -899 -958 0
492 -876 -1022 0
492 -899 -999 0
492 -917 -981 0
492 -940 -958 0
492 -917 -1022 0
492 -940 -999 0
492 -958 -1022 0
492 -981 -999 0
493 -835 -900 0
493 -859 -876 0
493 -835 -941 0
493 -859 -917 0
493 -835 -982 0
493 -859 -958 0
493 -835 -1023 0
493 -859 -999 0
493 -876 -941 0
493 -900 -917 0
493 -876 -982 0
493 -900 -958 0
493 -876 -1023 0
493 -900 -999 0
493 -917 -982 0
493 -941 -958 0
493 -917 -1023 0
493 -941 -999 0
493 -958 -1023 0
493 -982 -999 0
494 -835 -901 0
494 -860 -876 0
494 -835 -942 0
494 -860 -917 0
494 -835 -983 0
494 -860 -958 0
494 -835 -1024 0
494 -860 -999 0
494 -876 -942 0
494 -901 -917 0
494 -876 -983 0
494 -901 -958 0
494 -876 -1024 0
494 -901 -999 0
494 -917 -983 0
494 -942 -958 0
494 -917 -1024 0
494 -942 -999 0
494 -958 -1024 0
494 -983 -999 0
495 -835 -902 0
495 -861 -876 0
495 -835 -943 0
495 -861 -917 0
495 -835 -984 0
495 -861 -958 0
495 -835 -1025 0
495 -861 -999 0
495 -876 -943 0
495 -902 -917 0
495 -876 -984 0
495 -902 -958 0
495 -876 -1025 0
495 -902 -999 0
495 -917 -984 0
495 -943 -958 0
495 -917 -1025 0
495 -943 -999 0
495 -958 -1025 0
495 -984 -999 0
496 -836 -878 0
496 -837 -877 0
496 -836 -919 0
496 -837 -918 0
496 -836 -960 0
496 -837 -959 0
496 -836 -1001 0
496 -837 -1000 0
496 -877 -919 0
496 -878 -918 0
496 -877 -960 0
496 -878 -959 0
496 -877 -1001 0
496 -878 -1000 0
496 -918 -960 0
496 -919 -959 0
496 -918 -1001 0
496 -919 -1000 0
496 -959 -1001 0
496 -960 -1000 0
497 -836 -879 0
497 -838 -877 0
497 -836 -920 0
497 -838 -918 0
497 -836 -961 0
497 -838 -959 0
497 -836 -1002 0
497 -838 -1000 0
497 -877 -920 0
497 -879 -918 0
497 -877 -961 0
497 -879 -959 0
497 -877 -1002 0
497 -879 -1000 0
497 -918 -961 0
497 -920 -959 0
497 -918 -1002 0
497 -920 -1000 0
497 -959 -1002 0
497 -961 -1000 0
498 -836 -880 0
498 -839 -877 0
498 -836 -921 0
498 -839 -918 0
498 -836 -962 0
498 -839 -959 0
498 -836 -1003 0
498 -839 -1000 0
498 -877 -921 0
498 -880 -918 0
498 -877 -962 0
498 -880 -959 0
498 -877 -1003 0
498 -880 -1000 0
498 -918 -962 0
498 -921 -959 0
498 -918 -1003 0
498 -921 -1000 0
498 -959 -1003 0
498 -962 -1000 0
499 -836 -881 0
499 -840 -877 0
499 -836 -922 0
499 -840 -918 0
499 -836 -963 0
499 -840 -959 0
499 -836 -1004 0
499 -840 -1000 0
499 -877 -922 0
499 -881 -918 0
499 -877 -963 0
499 -881 -959 0
499 -877 -1004 0
499 -881 -1000 0
499 -918 -963 0
499 -922 -959 0
499 -918 -1004 0
499 -922 -1000 0
499 -959 -1004 0
499 -963 -1000 0
500 -836 -882 0
500 -841 -877 0
500 -836 -923 0
500 -841 -918 0
500 -836 -964 0
500 -841 -959 0
500 -836 -1005 0
500 -841 -1000 0
500 -877 -923 0
500 -882 -918 0
500 -877 -964 0
500 -882 -959 0
500 -877 -1005 0
500 -882 -1000 0
500 -918 -964 0
500 -923 -959 0
500 -918 -1005 0
500 -923 -1000 0
500 -959 -1005 0
500 -964 -1000 0
501 -836 -883 0
501 -842 -877 0
501 -836 -924 0
501 -842 -918 0
501 -836 -965 0
501 -842 -959 0
501 -836 -1006 0
501 -842 -1000 0
501 -877 -924 0
501 -883 -918 0
501 -877 -965 0
501 -883 -959 0
501 -877 -1006 0
501 -883 -1000 0
501 -918 -965 0
501 -924 -959 0
501 -918 -1006 0
501 -924 -1000 0
501 -959 -1006 0
501 -965 -1000 0
502 -836 -884 0
502 -843 -877 0
502 -836 -925 0
502 -843 -918 0
502 -836 -966 0
502 -843 -959 0
502 -836 -1007 0
502 -843 -1000 0
502 -877 -925 0
502 -884 -918 0
502 -877 -966 0
502 -884 -959 0
502 -877 -1007 0
502 -884 -1000 0
502 -918 -966 0
502 -925 -959 0
502 -918 -1007 0
502 -925 -1000 0
502 -959 -1007 0
502 -966 -1000 0
503 -836 -885 0
503 -844 -877 0
503 -836 -926 0
503 -844 -918 0
503 -836 -967 0
503 -844 -959 0
503 -836 -1008 0
503 -844 -1000 0
503 -877 -926 0
503 -885 -918 0
503 -877 -967 0
503 -885 -959 0
503 -877 -1008 0
503 -885 -1000 0
503 -918 -967 0
503 -926 -959 0
503 -918 -1008 0
503 -926 -1000 0
503 -959 -1008 0
503 -967 -1000 0
504 -836 -886 0
504 -845 -877 0
504 -836 -927 0
504 -845 -918 0
504 -836 -968 0
504 -845 -959 0
504 -836 -1009 0
504 -845 -1000 0
504 -877 -927 0
504 -886 -918 0
504 -877 -968 0
504 -886 -959 0
504 -877 -1009 0
504 -886 -1000 0
504 -918 -968 0
504 -927 -959 0
504 -918 -1009 0
504 -927 -1000 0
504 -959 -1009 0
504 -968 -1000 0
505 -836 -887 0
505 -846 -877 0
505 -836 -928 0
505 -846 -918 0
505 -836 -969 0
505 -846 -959 0
505 -836 -1010 0
505 -846 -1000 0
505 -877 -928 0
505 -887 -918 0
505 -877 -969 0
505 -887 -959 0
505 -877 -1010 0
505 -887 -1000 0
505 -918 -969 0
505 -928 -959 0
505 -918 -1010 0
505 -928 -1000 0
505 -959 -1010 0
505 -969 -1000 0
506 -836 -888 0
506 -847 -877 0
506 -836 -929 0
506 -847 -918 0
506 -836 -970 0
506 -847 -959 0
506 -836 -1011 0
506 -847 -1000 0
506 -877 -929 0
506 -888 -918 0
506 -877 -970 0
506 -888 -959 0
506 -877 -1011 0
506 -888 -1000 0
506 -918 -970 0
506 -929 -959 0
506 -918 -1011 0
506 -929 -1000 0
506 -959 -1011 0
506 -970 -1000 0
507 -836 -889 0
507 -848 -877 0
507 -836 -930 0
507 -848 -918 0
507 -836 -971 0
507 -848 -959 0
507 -836 -1012 0
507 -848 -1000 0
507 -877 -930 0
507 -889 -918 0
507 -877 -971 0
507 -889 -959 0
507 -877 -1012 0
507 -889 -1000 0
507 -918 -971 0
507 -930 -959 0
507 -918 -1012 0
507 -930 -1000 0
507 -959 -1012 0
507 -971 -1000 0
508 -836 -890 0
508 -849 -877 0
508 -836 -931 0
508 -849 -918 0
508 -836 -972 0
508 -849 -959 0
508 -836 -1013 0
508 -849 -1000 0
508 -877 -931 0
508 -890 -918 0
508 -877 -972 0
508 -890 -959 0
508 -877 -1013 0
508 -890 -1000 0
508 -918 -972 0
508 -931 -959 0
508 -918 -1013 0
508 -931 -1000 0
508 -959 -1013 0
508 -972 -1000 0
509 -836 -891 0
509 -850 -877 0
509 -836 -932 0
509 -850 -918 0
509 -836 -973 0
509 -850 -959 0
509 -836 -1014 0
509 -850 -1000 0
509 -877 -932 0
509 -891 -918 0
509 -877 -973 0
509 -891 -959 0
509 -877 -1014 0
509 -891 -1000 0
509 -918 -973 0
509 -932 -959 0
509 -918 -1014 0
509 -932 -1000 0
509 -959 -1014 0
509 -973 -1000 0
510 -836 -892 0
510 -851 -877 0
510 -836 -933 0
510 -851 -918 0
510 -836 -974 0
510 -851 -959 0
510 -836 -1015 0
510 -851 -1000 0
510 -877 -933 0
510 -892 -918 0
510 -877 -974 0
510 -892 -959 0
510 -877 -1015 0
510 -892 -1000 0
510 -918 -974 0
510 -933 -959 0
510 -918 -1015 0
510 -933 -1000 0
510 -959 -1015 0
510 -974 -1000 0
511 -836 -893 0
511 -852 -877 0
511 -836 -934 0
511 -852 -918 0
511 -836 -975 0
511 -852 -959 0
511 -836 -1016 0
511 -852 -1000 0
511 -877 -934 0
511 -893 -918 0
511 -877 -975 0
511 -893 -959 0
511 -877 -1016 0
511 -893 -1000 0
511 -918 -975 0
511 -934 -959 0
511 -918 -1016 0
511 -934 -1000 0
511 -959 -1016 0
511 -975 -1000 0
512 -836 -894 0
512 -853 -877 0
512 -836 -935 0
512 -853 -918 0
512 -836 -976 0
512 -853 -959 0
512 -836 -1017 0
512 -853 -1000 0
512 -877 -935 0
512 -894 -918 0
512 -877 -976 0
512 -894 -959 0
512 -877 -1017 0
512 -894 -1000 0
512 -918 -976 0
512 -935 -959 0
512 -918 -1017 0
512 -935 -1000 0
512 -959 -1017 0
512 -976 -1000 0
513 -836 -895 0
513 -854 -877 0
513 -836 -936 0
513 -854 -918 0
513 -836 -977 0
513 -854 -959 0
513 -836 -1018 0
513 -854 -1000 0
513 -877 -936 0
513 -895 -918 0
513 -877 -977 0
513 -895 -959 0
513 -877 -1018 0
513 -895 -1000 0
513 -918 -977 0
513 -936 -959 0
513 -918 -1018 0
513 -936 -1000 0
513 -959 -1018 0
513 -977 -1000 0
514 -836 -896 0
514 -855 -877 0
514 -836 -937 0
514 -855 -918 0
514 -836 -978 0
514 -855 -959 0
514 -836 -1019 0
514 -855 -1000 0
514 -877 -937 0
514 -896 -918 0
514 -877 -978 0
514 -896 -959 0
514 -877 -1019 0
514 -896 -1000 0
514 -918 -978 0
514 -937 -959 0
514 -918 -1019 0
514 -937 -1000 0
514 -959 -1019 0
514 -978 -1000 0
515 -836 -897 0
515 -856 -877 0
515 -836 -938 0
515 -856 -918 0
515 -836 -979 0
515 -856 -959 0
515 -836 -1020 0
515 -856 -1000 0
515 -877 -938 0
515 -897 -918 0
515 -877 -979 0
515 -897 -959 0
515 -877 -1020 0
515 -897 -1000 0
515 -918 -979 0
515 -938 -959 0
515 -918 -1020 0
515 -938 -1000 0
515 -959 -1020 0
515 -979 -1000 0
516 -836 -898 0
516 -857 -877 0
516 -836 -939 0
516 -857 -918 0
516 -836 -980 0
516 -857 -959 0
516 -836 -1021 0
516 -857 -1000 0
516 -877 -939 0
516 -898 -918 0
516 -877 -980 0
516 -898 -959 0
516 -877 -1021 0
516 -898 -1000 0
516 -918 -980 0
516 -939 -959 0
516 -918 -1021 0
516 -939 -1000 0
516 -959 -1021 0
516 -980 -1000 0
517 -836 -899 0
517 -858 -877 0
517 -836 -940 0
517 -858 -918 0
517 -836 -981 0
517 -858 -959 0
517 -836 -1022 0
517 -858 -1000 0
517 -877 -940 0
517 -899 -918 0
517 -877 -981 0
517 -899 -959 0
517 -877 -1022 0
517 -899 -1000 0
517 -918 -981 0
517 -940 -959 0
517 -918 -1022 0
517 -940 -1000 0
517 -959 -1022 0
517 -981 -1000 0
518 -836 -900 0
518 -859 -877 0
518 -836 -941 0
518 -859 -918 0
518 -836 -982 0
518 -859 -959 0
518 -836 -1023 0
518 -859 -1000 0
518 -877 -941 0
518 -900 -918 0
518 -877 -982 0
518 -900 -959 0
518 -877 -1023 0
518 -900 -1000 0
518 -918 -982 0
518 -941 -959 0
518 -918 -1023 0
518 -941 -1000 0
518 -959 -1023 0
518 -982 -1000 0
519 -836 -901 0
519 -860 -877 0
519 -836 -942 0
519 -860 -918 0
519 -836 -983 0
519 -860 -959 0
519 -836 -1024 0
519 -860 -1000 0
519 -877 -942 0
519 -901 -918 0
519 -877 -983 0
519 -901 -959 0
519 -877 -1024 0
519 -901 -1000 0
519 -918 -983 0
519 -942 -959 0
519 -918 -1024 0
519 -942 -1000 0
519 -959 -1024 0
519 -983 -1000 0
520 -836 -902 0
520 -861 -877 0
520 -836 -943 0
520 -861 -918 0
520 -836 -984 0
520 -861 -959 0
520 -836 -1025 0
520 -861 -1000 0
520 -877 -943 0
520 -902 -918 0
520 -877 -984 0
520 -902 -959 0
520 -877 -1025 0
520 -902 -1000 0
520 -918 -984 0
520 -943 -959 0
520 -918 -1025 0
520 -943 -1000 0
520 -959 -1025 0
520 -984 -1000 0
521 -837 -879 0
521 -838 -878 0
521 -837 -920 0
521 -838 -919 0
521 -837 -961 0
521 -838 -960 0
521 -837 -1002 0
521 -838 -1001 0
521 -878 -920 0
521 -879 -919 0
521 -878 -961 0
521 -879 -960 0
521 -878 -1002 0
521 -879 -1001 0
521 -919 -961 0
521 -920 -960 0
521 -919 -1002 0
521 -920 -1001 0
521 -960 -1002 0
521 -961 -1001 0
522 -837 -880 0
522 -839 -878 0
522 -837 -921 0
522 -839 -919 0
522 -837 -962 0
522 -839 -960 0
522 -837 -1003 0
522 -839 -1001 0
522 -878 -921 0
522 -880 -919 0
522 -878 -962 0
522 -880 -960 0
522 -878 -1003 0
522 -880 -1001 0
522 -919 -962 0
522 -921 -960 0
522 -919 -1003 0
522 -921 -1001 0
522 -960 -1003 0
522 -962 -1001 0
523 -837 -881 0
523 -840 -878 0
523 -837 -922 0
523 -840 -919 0
523 -837 -963 0
523 -840 -960 0
523 -837 -1004 0
523 -840 -1001 0
523 -878 -922 0
523 -881 -919 0
523 -878 -963 0
523 -881 -960 0
523 -878 -1004 0
523 -881 -1001 0
523 -919 -963 0
523 -922 -960 0
523 -919 -1004 0
523 -922 -1001 0
523 -960 -1004 0
523 -963 -1001 0
524 -837 -882 0
524 -841 -878 0
524 -837 -923 0
524 -841 -919 0
524 -837 -964 0
524 -841 -960 0
524 -837 -1005 0
524 -841 -1001 0
524 -878 -923 0
524 -882 -919 0
524 -878 -964 0
524 -882 -960 0
524 -878 -1005 0
524 -882 -1001 0
524 -919 -964 0
524 -923 -960 0
524 -919 -1005 0
524 -923 -1001 0
524 -960 -1005 0
524 -964 -1001 0
525 -837 -883 0
525 -842 -878 0
525 -837 -924 0
525 -842 -919 0
525 -837 -965 0
525 -842 -960 0
525 -837 -1006 0
525 -842 -1001 0
525 -878 -924 0
525 -883 -919 0
525 -878 -965 0
525 -883 -960 0
525 -878 -1006 0
525 -883 -1001 0
525 -919 -965 0
525 -924 -960 0
525 -919 -1006 0
525 -924 -1001 0
525 -960 -1006 0
525 -965 -1001 0
526 -837 -884 0
526 -843 -878 0
526 -837 -925 0
526 -843 -919 0
526 -837 -966 0
526 -843 -960 0
526 -837 -1007 0
526 -843 -1001 0
526 -878 -925 0
526 -884 -919 0
526 -878 -966 0
526 -884 -960 0
526 -878 -1007 0
526 -884 -1001 0
526 -919 -966 0
526 -925 -960 0
526 -919 -1007 0
526 -925 -1001 0
526 -960 -1007 0
526 -966 -1001 0
527 -837 -885 0
527 -844 -878 0
527 -837 -926 0
527 -844 -919 0
527 -837 -967 0
527 -844 -960 0
527 -837 -1008 0
527 -844 -1001 0
527 -878 -926 0
527 -885 -919 0
527 -878 -967 0
527 -885 -960 0
527 -878 -1008 0
527 -885 -1001 0
527 -919 -967 0
527 -926 -960 0
527 -919 -1008 0
527 -926 -1001 0
527 -960 -1008 0
527 -967 -1001 0
528 -837 -886 0
528 -845 -878 0
528 -837 -927 0
528 -845 -919 0
528 -837 -968 0
528 -845 -960 0
528 -837 -1009 0
528 -845 -1001 0
528 -878 -927 0
528 -886 -919 0
528 -878 -968 0
528 -886 -960 0
528 -878 -1009 0
528 -886 -1001 0
528 -919 -968 0
528 -927 -960 0
528 -919 -1009 0
528 -927 -1001 0
528 -960 -1009 0
528 -968 -1001 0
529 -837 -887 0
529 -846 -878 0
529 -837 -928 0
529 -846 -919 0
529 -837 -969 0
529 -846 -960 0
529 -837 -1010 0
529 -846 -1001 0
529 -878 -928 0
529 -887 -919 0
529 -878 -969 0
529 -887 -960 0
529 -878 -1010 0
529 -887 -1001 0
529 -919 -969 0
529 -928 -960 0
529 -919 -1010 0
529 -928 -1001 0
529 -960 -1010 0
529 -969 -1001 0
530 -837 -888 0
530 -847 -878 0
530 -837 -929 0
530 -847 -919 0
530 -837 -970 0
530 -847 -960 0
530 -837 -1011 0
530 -847 -1001 0
530 -878 -929 0
530 -888 -919 0
530 -878 -970 0
530 -888 -960 0
530 -878 -1011 0
530 -888 -1001 0
530 -919 -970 0
530 -929 -960 0
530 -919 -1011 0
530 -929 -1001 0
530 -960 -1011 0
530 -970 -1001 0
531 -837 -889 0
531 -848 -878 0
531 -837 -930 0
531 -848 -919 0
531 -837 -971 0
531 -848 -960 0
531 -837 -1012 0
531 -848 -1001 0
531 -878 -930 0
531 -889 -919 0
531 -878 -971 0
531 -889 -960 0
531 -878 -1012 0
531 -889 -1001 0
531 -919 -971 0
531 -930 -960 0
531 -919 -1012 0
531 -930 -1001 0
531 -960 -1012 0
531 -971 -1001 0
532 -837 -890 0
532 -849 -878 0
532 -837 -931 0
532 -849 -919 0
532 -837 -972 0
532 -849 -960 0
532 -837 -1013 0
532 -849 -1001 0
532 -878 -931 0
532 -890 -919 0
532 -878 -972 0
532 -890 -960 0
532 -878 -1013 0
532 -890 -1001 0
532 -919 -972 0
532 -931 -960 0
532 -919 -1013 0
532 -931 -1001 0
532 -960 -1013 0
532 -972 -1001 0
533 -837 -891 0
533 -850 -878 0
533 -837 -932 0
533 -850 -919 0
533 -837 -973 0
533 -850 -960 0
533 -837 -1014 0
533 -850 -1001 0
533 -878 -932 0
533 -891 -919 0
533 -878 -973 0
533 -891 -960 0
533 -878 -1014 0
533 -891 -1001 0
533 -919 -973 0
533 -932 -960 0
533 -919 -1014 0
533 -932 -1001 0
533 -960 -1014 0
533 -973 -1001 0
534 -837 -892 0
534 -851 -878 0
534 -837 -933 0
534 -851 -919 0
534 -837 -974 0
534 -851 -960 0
534 -837 -1015 0
534 -851 -1001 0
534 -878 -933 0
534 -892 -919 0
534 -878 -974 0
534 -892 -960 0
534 -878 -1015 0
534 -892 -1001 0
534 -919 -974 0
534 -933 -960 0
534 -919 -1015 0
534 -933 -1001 0
534 -960 -1015 0
534 -974 -1001 0
535 -837 -893 0
535 -852 -878 0
535 -837 -934 0
535 -852 -919 0
535 -837 -975 0
535 -852 -960 0
535 -837 -1016 0
535 -852 -1001 0
535 -878 -934 0
535 -893 -919 0
535 -878 -975 0
535 -893 -960 0
535 -878 -1016 0
535 -893 -1001 0
535 -919 -975 0
535 -934 -960 0
535 -919 -1016 0
535 -934 -1001 0
535 -960 -1016 0
535 -975 -1001 0
536 -837 -894 0
536 -853 -878 0
536 -837 -935 0
536 -853 -919 0
536 -837 -976 0
536 -853 -960 0
536 -837 -1017 0
536 -853 -1001 0
536 -878 -935 0
536 -894 -919 0
536 -878 -976 0
536 -894 -960 0
536 -878 -1017 0
536 -894 -1001 0
536 -919 -976 0
536 -935 -960 0
536 -919 -1017 0
536 -935 -1001 0
536 -960 -1017 0
536 -976 -1001 0
537 -837 -895 0
537 -854 -878 0
537 -837 -936 0
537 -854 -919 0
537 -837 -977 0
537 -854 -960 0
537 -837 -1018 0
537 -854 -1001 0
537 -878 -936 0
537 -895 -919 0
537 -878 -977 0
537 -895 -960 0
537 -878 -1018 0
537 -895 -1001 0
537 -919 -977 0
537 -936 -960 0
537 -919 -1018 0
537 -936 -1001 0
537 -960 -1018 0
537 -977 -1001 0
538 -837 -896 0
538 -855 -878 0
538 -837 -937 0
538 -855 -919 0
538 -837 -978 0
538 -855 -960 0
538 -837 -1019 0
538 -855 -1001 0
538 -878 -937 0
538 -896 -919 0
538 -878 -978 0
538 -896 -960 0
538 -878 -1019 0
538 -896 -1001 0
538 -919 -978 0
538 -937 -960 0
538 -919 -1019 0
538 -937 -1001 0
538 -960 -1019 0
538 -978 -1001 0
539 -837 -897 0
539 -856 -878 0
539 -837 -938 0
539 -856 -919 0
539 -837 -979 0
539 -856 -960 0
539 -837 -1020 0
539 -856 -1001 0
539 -878 -938 0
539 -897 -919 0
539 -878 -979 0
539 -897 -960 0
539 -878 -1020 0
539 -897 -1001 0
539 -919 -979 0
539 -938 -960 0
539 -919 -1020 0
539 -938 -1001 0
539 -960 -1020 0
539 -979 -1001 0
540 -837 -898 0
540 -857 -878 0
540 -837 -939 0
540 -857 -919 0
540 -837 -980 0
540 -857 -960 0
540 -837 -1021 0
540 -857 -1001 0
540 -878 -939 0
540 -898 -919 0
540 -878 -980 0
540 -898 -960 0
540 -878 -1021 0
540 -898 -1001 0
540 -919 -980 0
540 -939 -960 0
540 -919 -1021 0
540 -939 -1001 0
540 -960 -1021 0
540 -980 -1001 0
541 -837 -899 0
541 -858 -878 0
541 -837 -940 0
541 -858 -919 0
541 -837 -981 0
541 -858 -960 0
541 -837 -1022 0
541 -858 -1001 0
541 -878 -940 0
541 -899 -919 0
541 -878 -981 0
541 -899 -960 0
541 -878 -1022 0
541 -899 -1001 0
541 -919 -981 0
541 -940 -960 0
541 -919 -1022 0
541 -940 -1001 0
541 -960 -1022 0
541 -981 -1001 0
542 -837 -900 0
542 -859 -878 0
542 -837 -941 0
542 -859 -919 0
542 -837 -982 0
542 -859 -960 0
542 -837 -1023 0
542 -859 -1001 0
542 -878 -941 0
542 -900 -919 0
542 -878 -982 0
542 -900 -960 0
542 -878 -1023 0
542 -900 -1001 0
542 -919 -982 0
542 -941 -960 0
542 -919 -1023 0
542 -941 -1001 0
542 -960 -1023 0
542 -982 -1001 0
543 -837 -901 0
543 -860 -878 0
543 -837 -942 0
543 -860 -919 0
543 -837 -983 0
543 -860 -960 0
543 -837 -1024 0
543 -860 -1001 0
543 -878 -942 0
543 -901 -919 0
543 -878 -983 0
543 -901 -960 0
543 -878 -1024 0
543 -901 -1001 0
543 -919 -983 0
543 -942 -960 0
543 -919 -1024 0
543 -942 -1001 0
543 -960 -1024 0
543 -983 -1001 0
544 -837 -902 0
544 -861 -878 0
544 -837 -943 0
544 -861 -919 0
544 -837 -984 0
544 -861 -960 0
544 -837 -1025 0
544 -861 -1001 0
544 -878 -943 0
544 -902 -919 0
544 -878 -984 0
544 -902 -960 0
544 -878 -1025 0
544 -902 -1001 0
544 -919 -984 0
544 -943 -960 0
544 -919 -1025 0
544 -943 -1001 0
544 -960 -1025 0
544 -984 -1001 0
545 -838 -880 0
545 -839 -879 0
545 -838 -921 0
545 -839 -920 0
545 -838 -962 0
545 -839 -961 0
545 -838 -1003 0
545 -839 -1002 0
545 -879 -921 0
545 -880 -920 0
545 -879 -962 0
545 -880 -961 0
545 -879 -1003 0
545 -880 -1002 0
545 -920 -962 0
545 -921 -961 0
545 -920 -1003 0
545 -921 -1002 0
545 -961 -1003 0
545 -962 -1002 0
546 -838 -881 0
546 -840 -879 0
546 -838 -922 0
546 -840 -920 0
546 -838 -963 0
546 -840 -961 0
546 -838 -1004 0
546 -840 -1002 0
546 -879 -922 0
546 -881 -920 0
546 -879 -963 0
546 -881 -961 0
546 -879 -1004 0
546 -881 -1002 0
546 -920 -963 0
546 -922 -961 0
546 -920 -1004 0
546 -922 -1002 0
546 -961 -1004 0
546 -963 -1002 0
547 -838 -882 0
547 -841 -879 0
547 -838 -923 0
547 -841 -920 0
547 -838 -964 0
547 -841 -961 0
547 -838 -1005 0
547 -841 -1002 0
547 -879 -923 0
547 -882 -920 0
547 -879 -964 0
547 -882 -961 0
547 -879 -1005 0
547 -882 -1002 0
547 -920 -964 0
547 -923 -961 0
547 -920 -1005 0
547 -923 -1002 0
547 -961 -1005 0
547 -964 -1002 0
548 -838 -883 0
548 -842 -879 0
548 -838 -924 0
548 -842 -920 0
548 -838 -965 0
548 -842 -961 0
548 -838 -1006 0
548 -842 -1002 0
548 -879 -924 0
548 -883 -920 0
548 -879 -965 0
548 -883 -961 0
548 -879 -1006 0
548 -883 -1002 0
548 -920 -965 0
548 -924 -961 0
548 -920 -1006 0
548 -924 -1002 0
548 -961 -1006 0
548 -965 -1002 0
549 -838 -884 0
549 -843 -879 0
549 -838 -925 0
549 -843 -920 0
549 -838 -966 0
549 -843 -961 0
549 -838 -1007 0
549 -843 -1002 0
549 -879 -925 0
549 -884 -920 0
549 -879 -966 0
549 -884 -961 0
549 -879 -1007 0
549 -884 -1002 0
549 -920 -966 0
549 -925 -961 0
549 -920 -1007 0
549 -925 -1002 0
549 -961 -1007 0
549 -966 -1002 0
550 -838 -885 0
550 -844 -879 0
550 -838 -926 0
550 -844 -920 0
550 -838 -967 0
550 -844 -961 0
550 -838 -1008 0
550 -844 -1002 0
550 -879 -926 0
550 -885 -920 0
550 -879 -967 0
550 -885 -961 0
550 -879 -1008 0
550 -885 -1002 0
550 -920 -967 0
550 -926 -961 0
550 -920 -1008 0
550 -926 -1002 0
550 -961 -1008 0
550 -967 -1002 0
551 -838 -886 0
551 -845 -879 0
551 -838 -927 0
551 -845 -920 0
551 -838 -968 0
551 -845 -961 0
551 -838 -1009 0
551 -845 -1002 0
551 -879 -927 0
551 -886 -920 0
551 -879 -968 0
551 -886 -961 0
551 -879 -1009 0
551 -886 -1002 0
551 -920 -968 0
551 -927 -961 0
551 -920 -1009 0
551 -927 -1002 0
551 -961 -1009 0
551 -968 -1002 0
552 -838 -887 0
552 -846 -879 0
552 -838 -928 0
552 -846 -920 0
552 -838 -969 0
552 -846 -961 0
552 -838 -1010 0
552 -846 -1002 0
552 -879 -928 0
552 -887 -920 0
552 -879 -969 0
552 -887 -961 0
552 -879 -1010 0
552 -887 -1002 0
552 -920 -969 0
552 -928 -961 0
552 -920 -1010 0
552 -928 -1002 0
552 -961 -1010 0
552 -969 -1002 0
553 -838 -888 0
553 -847 -879 0
553 -838 -929 0
553 -847 -920 0
553 -838 -970 0
553 -847 -961 0
553 -838 -1011 0
553 -847 -1002 0
553 -879 -929 0
553 -888 -920 0
553 -879 -970 0
553 -888 -961 0
553 -879 -1011 0
553 -888 -1002 0
553 -920 -970 0
553 -929 -961 0
553 -920 -1011 0
553 -929 -1002 0
553 -961 -1011 0
553 -970 -1002 0
554 -838 -889 0
554 -848 -879 0
554 -838 -930 0
554 -848 -920 0
554 -838 -971 0
554 -848 -961 0
554 -838 -1012 0
554 -848 -1002 0
554 -879 -930 0
554 -889 -920 0
554 -879 -971 0
554 -889 -961 0
554 -879 -1012 0
554 -889 -1002 0
554 -920 -971 0
554 -930 -961 0
554 -920 -1012 0
554 -930 -1002 0
554 -961 -1012 0
554 -971 -1002 0
555 -838 -890 0
555 -849 -879 0
555 -838 -931 0
555 -849 -920 0
555 -838 -972 0
555 -849 -961 0
555 -838 -1013 0
555 -849 -1002 0
555 -879 -931 0
555 -890 -920 0
555 -879 -972 0
555 -890 -961 0
555 -879 -1013 0
555 -890 -1002 0
555 -920 -972 0
555 -931 -961 0
555 -920 -1013 0
555 -931 -1002 0
555 -961 -1013 0
555 -972 -1002 0
556 -838 -891 0
556 -850 -879 0
556 -838 -932 0
556 -850 -920 0
556 -838 -973 0
556 -850 -961 0
556 -838 -1014 0
556 -850 -1002 0
556 -879 -932 0
556 -891 -920 0
556 -879 -973 0
556 -891 -961 0
556 -879 -1014 0
556 -891 -1002 0
556 -920 -973 0
556 -932 -961 0
556 -920 -1014 0
556 -932 -1002 0
556 -961 -1014 0
556 -973 -1002 0
557 -838 -892 0
557 -851 -879 0
557 -838 -933 0
557 -851 -920 0
557 -838 -974 0
557 -851 -961 0
557 -838 -1015 0
557 -851 -1002 0
557 -879 -933 0
557 -892 -920 0
557 -879 -974 0
557 -892 -961 0
557 -879 -1015 0
557 -892 -1002 0
557 -920 -974 0
557 -933 -961 0
557 -920 -1015 0
557 -933 -1002 0
557 -961 -1015 0
557 -974 -1002 0
558 -838 -893 0
558 -852 -879 0
558 -838 -934 0
558 -852 -920 0
558 -838 -975 0
558 -852 -961 0
558 -838 -1016 0
558 -852 -1002 0
558 -879 -934 0
558 -893 -920 0
558 -879 -975 0
558 -893 -961 0
558 -879 -1016 0
558 -893 -1002 0
558 -920 -975 0
558 -934 -961 0
558 -920 -1016 0
558 -934 -1002 0
558 -961 -1016 0
558 -975 -1002 0
559 -838 -894 0
559 -853 -879 0
559 -838 -935 0
559 -853 -920 0
559 -838 -976 0
559 -853 -961 0
559 -838 -1017 0
559 -853 -1002 0
559 -879 -935 0
559 -894 -920 0
559 -879 -976 0
559 -894 -961 0
559 -879 -1017 0
559 -894 -1002 0
559 -920 -976 0
559 -935 -961 0
559 -920 -1017 0
559 -935 -1002 0
559 -961 -1017 0
559 -976 -1002 0
560 -838 -895 0
560 -854 -879 0
560 -838 -936 0
560 -854 -920 0
560 -838 -977 0
560 -854 -961 0
560 -838 -1018 0
560 -854 -1002 0
560 -879 -936 0
560 -895 -920 0
560 -879 -977 0
560 -895 -961 0
560 -879 -1018 0
560 -895 -1002 0
560 -920 -977 0
560 -936 -961 0
560 -920 -1018 0
560 -936 -1002 0
560 -961 -1018 0
560 -977 -1002 0
561 -838 -896 0
561 -855 -879 0
561 -838 -937 0
561 -855 -920 0
561 -838 -978 0
561 -855 -961 0
561 -838 -1019 0
561 -855 -1002 0
561 -879 -937 0
561 -896 -920 0
561 -879 -978 0
561 -896 -961 0
561 -879 -1019 0
561 -896 -1002 0
561 -920 -978 0
561 -937 -961 0
561 -920 -1019 0
561 -937 -1002 0
561 -961 -1019 0
561 -978 -1002 0
562 -838 -897 0
562 -856 -879 0
562 -838 -938 0
562 -856 -920 0
562 -838 -979 0
562 -856 -961 0
562 -838 -1020 0
562 -856 -1002 0
562 -879 -938 0
562 -897 -920 0
562 -879 -979 0
562 -897 -961 0
562 -879 -1020 0
562 -897 -1002 0
562 -920 -979 0
562 -938 -961 0
562 -920 -1020 0
562 -938 -1002 0
562 -961 -1020 0
562 -979 -1002 0
563 -838 -898 0
563 -857 -879 0
563 -838 -939 0
563 -857 -920 0
563 -838 -980 0
563 -857 -961 0
563 -838 -1021 0
563 -857 -1002 0
563 -879 -939 0
563 -898 -920 0
563 -879 -980 0
563 -898 -961 0
563 -879 -1021 0
563 -898 -1002 0
563 -920 -980 0
563 -939 -961 0
563 -920 -1021 0
563 -939 -1002 0
563 -961 -1021 0
563 -980 -1002 0
564 -838 -899 0
564 -858 -879 0
564 -838 -940 0
564 -858 -920 0
564 -838 -981 0
564 -858 -961 0
564 -838 -1022 0
564 -858 -1002 0
564 -879 -940 0
564 -899 -920 0
564 -879 -981 0
564 -899 -961 0
564 -879 -1022 0
564 -899 -1002 0
564 -920 -981 0
564 -940 -961 0
564 -920 -1022 0
564 -940 -1002 0
564 -961 -1022 0
564 -981 -1002 0
565 -838 -900 0
565 -859 -879 0
565 -838 -941 0
565 -859 -920 0
565 -838 -982 0
565 -859 -961 0
565 -838 -1023 0
565 -859 -1002 0
565 -879 -941 0
565 -900 -920 0
565 -879 -982 0
565 -900 -961 0
565 -879 -1023 0
565 -900 -1002 0
565 -920 -982 0
565 -941 -961 0
565 -920 -1023 0
565 -941 -1002 0
565 -961 -1023 0
565 -982 -1002 0
566 -838 -901 0
566 -860 -879 0
566 -838 -942 0
566 -860 -920 0
566 -838 -983 0
566 -860 -961 0
566 -838 -1024 0
566 -860 -1002 0
566 -879 -942 0
566 -901 -920 0
566 -879 -983 0
566 -901 -961 0
566 -879 -1024 0
566 -901 -1002 0
566 -920 -983 0
566 -942 -961 0
566 -920 -1024 0
566 -942 -1002 0
566 -961 -1024 0
566 -983 -1002 0
567 -838 -902 0
567 -861 -879 0
567 -838 -943 0
567 -861 -920 0
567 -838 -984 0
567 -861 -961 0
567 -838 -1025 0
567 -861 -1002 0
567 -879 -943 0
567 -902 -920 0
567 -879 -984 0
567 -902 -961 0
567 -879 -1025 0
567 -902 -1002 0
567 -920 -984 0
567 -943 -961 0
567 -920 -1025 0
567 -943 -1002 0
567 -961 -1025 0
567 -984 -1002 0
568 -839 -881 0
568 -840 -880 0
568 -839 -922 0
568 -840 -921 0
568 -839 -963 0
568 -840 -962 0
568 -839 -1004 0
568 -840 -1003 0
568 -880 -922 0
568 -881 -921 0
568 -880 -963 0
568 -881 -962 0
568 -880 -1004 0
568 -881 -1003 0
568 -921 -963 0
568 -922 -962 0
568 -921 -1004 0
568 -922 -1003 0
568 -962 -1004 0
568 -963 -1003 0
569 -839 -882 0
569 -841 -880 0
569 -839 -923 0
569 -841 -921 0
569 -839 -964 0
569 -841 -962 0
569 -839 -1005 0
569 -841 -1003 0
569 -880 -923 0
569 -882 -921 0
569 -880 -964 0
569 -882 -962 0
569 -880 -1005 0
569 -882 -1003 0
569 -921 -964 0
569 -923 -962 0
569 -921 -1005 0
569 -923 -1003 0
569 -962 -1005 0
569 -964 -1003 0
570 -839 -883 0
570 -842 -880 0
570 -839 -924 0
570 -842 -921 0
570 -839 -965 0
570 -842 -962 0
570 -839 -1006 0
570 -842 -1003 0
570 -880 -924 0
570 -883 -921 0
570 -880 -965 0
570 -883 -962 0
570 -880 -1006 0
570 -883 -1003 0
570 -921 -965 0
570 -924 -962 0
570 -921 -1006 0
570 -924 -1003 0
570 -962 -1006 0
570 -965 -1003 0
571 -839 -884 0
571 -843 -880 0
571 -839 -925 0
571 -843 -921 0
571 -839 -966 0
571 -843 -962 0
571 -839 -1007 0
571 -843 -1003 0
571 -880 -925 0
571 -884 -921 0
571 -880 -966 0
571 -884 -962 0
571 -880 -1007 0
571 -884 -1003 0
571 -921 -966 0
571 -925 -962 0
571 -921 -1007 0
571 -925 -1003 0
571 -962 -1007 0
571 -966 -1003 0
572 -839 -885 0
572 -844 -880 0
572 -839 -926 0
572 -844 -921 0
572 -839 -967 0
572 -844 -962 0
572 -839 -1008 0
572 -844 -1003 0
572 -880 -926 0
572 -885 -921 0
572 -880 -967 0
572 -885 -962 0
572 -880 -1008 0
572 -885 -1003 0
572 -921 -967 0
572 -926 -962 0
572 -921 -1008 0
572 -926 -1003 0
572 -962 -1008 0
572 -967 -1003 0
573 -839 -886 0
573 -845 -880 0
573 -839 -927 0
573 -845 -921 0
573 -839 -968 0
573 -845 -962 0
573 -839 -1009 0
573 -845 -1003 0
573 -880 -927 0
573 -886 -921 0
573 -880 -968 0
573 -886 -962 0
573 -880 -1009 0
573 -886 -1003 0
573 -921 -968 0
573 -927 -962 0
573 -921 -1009 0
573 -927 -1003 0
573 -962 -1009 0
573 -968 -1003 0
574 -839 -887 0
574 -846 -880 0
574 -839 -928 0
574 -846 -921 0
574 -839 -969 0
574 -846 -962 0
574 -839 -1010 0
574 -846 -1003 0
574 -880 -928 0
574 -887 -921 0
574 -880 -969 0
574 -887 -962 0
574 -880 -1010 0
574 -887 -1003 0
574 -921 -969 0
574 -928 -962 0
574 -921 -1010 0
574 -928 -1003 0
574 -962 -1010 0
574 -969 -1003 0
575 -839 -888 0
575 -847 -880 0
575 -839 -929 0
575 -847 -921 0
575 -839 -970 0
575 -847 -962 0
575 -839 -1011 0
575 -847 -1003 0
575 -880 -929 0
575 -888 -921 0
575 -880 -970 0
575 -888 -962 0
575 -880 -1011 0
575 -888 -1003 0
575 -921 -970 0
575 -929 -962 0
575 -921 -1011 0
575 -929 -1003 0
575 -962 -1011 0
575 -970 -1003 0
576 -839 -889 0
576 -848 -880 0
576 -839 -930 0
576 -848 -921 0
576 -839 -971 0
576 -848 -962 0
576 -839 -1012 0
576 -848 -1003 0
576 -880 -930 0
576 -889 -921 0
576 -880 -971 0
576 -889 -962 0
576 -880 -1012 0
576 -889 -1003 0
576 -921 -971 0
576 -930 -962 0
576 -921 -1012 0
576 -930 -1003 0
576 -962 -1012 0
576 -971 -1003 0
577 -839 -890 0
577 -849 -880 0
577 -839 -931 0
577 -849 -921 0
577 -839 -972 0
577 -849 -962 0
577 -839 -1013 0
577 -849 -1003 0
577 -880 -931 0
577 -890 -921 0
577 -880 -972 0
577 -890 -962 0
577 -880 -1013 0
577 -890 -1003 0
577 -921 -972 0
577 -931 -962 0
577 -921 -1013 0
577 -931 -1003 0
577 -962 -1013 0
577 -972 -1003 0
578 -839 -891 0
578 -850 -880 0
578 -839 -932 0
578 -850 -921 0
578 -839 -973 0
578 -850 -962 0
578 -839 -1014 0
578 -850 -1003 0
578 -880 -932 0
578 -891 -921 0
578 -880 -973 0
578 -891 -962 0
578 -880 -1014 0
578 -891 -1003 0
578 -921 -973 0
578 -932 -962 0
578 -921 -1014 0
578 -932 -1003 0
578 -962 -1014 0
578 -973 -1003 0
579 -839 -892 0
579 -851 -880 0
579 -839 -933 0
579 -851 -921 0
579 -839 -974 0
579 -851 -962 0
579 -839 -1015 0
579 -851 -1003 0
579 -880 -933 0
579 -892 -921 0
579 -880 -974 0
579 -892 -962 0
579 -880 -1015 0
579 -892 -1003 0
579 -921 -974 0
579 -933 -962 0
579 -921 -1015 0
579 -933 -1003 0
579 -962 -1015 0
579 -974 -1003 0
580 -839 -893 0
580 -852 -880 0
580 -839 -934 0
580 -852 -921 0
580 -839 -975 0
580 -852 -962 0
580 -839 -1016 0
580 -852 -1003 0
580 -880 -934 0
580 -893 -921 0
580 -880 -975 0
580 -893 -962 0
580 -880 -1016 0
580 -893 -1003 0
580 -921 -975 0
580 -934 -962 0
580 -921 -1016 0
580 -934 -1003 0
580 -962 -1016 0
580 -975 -1003 0
581 -839 -894 0
581 -853 -880 0
581 -839 -935 0
581 -853 -921 0
581 -839 -976 0
581 -853 -962 0
581 -839 -1017 0
581 -853 -1003 0
581 -880 -935 0
581 -894 -921 0
581 -880 -976 0
581 -894 -962 0
581 -880 -1017 0
581 -894 -1003 0
581 -921 -976 0
581 -935 -962 0
581 -921 -1017 0
581 -935 -1003 0
581 -962 -1017 0
581 -976 -1003 0
582 -839 -895 0
582 -854 -880 0
582 -839 -936 0
582 -854 -921 0
582 -839 -977 0
582 -854 -962 0
582 -839 -1018 0
582 -854 -1003 0
582 -880 -936 0
582 -895 -921 0
582 -880 -977 0
582 -895 -962 0
582 -880 -1018 0
582 -895 -1003 0
582 -921 -977 0
582 -936 -962 0
582 -921 -1018 0
582 -936 -1003 0
582 -962 -1018 0
582 -977 -1003 0
583 -839 -896 0
583 -855 -880 0
583 -839 -937 0
583 -855 -921 0
583 -839 -978 0
583 -855 -962 0
583 -839 -1019 0
583 -855 -1003 0
583 -880 -937 0
583 -896 -921 0
583 -880 -978 0
583 -896 -962 0
583 -880 -1019 0
583 -896 -1003 0
583 -921 -978 0
583 -937 -962 0
583 -921 -1019 0
583 -937 -1003 0
583 -962 -1019 0
583 -978 -1003 0
584 -839 -897 0
584 -856 -880 0
584 -839 -938 0
584 -856 -921 0
584 -839 -979 0
584 -856 -962 0
584 -839 -1020 0
584 -856 -1003 0
584 -880 -938 0
584 -897 -921 0
584 -880 -979 0
584 -897 -962 0
584 -880 -1020 0
584 -897 -1003 0
584 -921 -979 0
584 -938 -962 0
584 -921 -1020 0
584 -938 -1003 0
584 -962 -1020 0
584 -979 -1003 0
585 -839 -898 0
585 -857 -880 0
585 -839 -939 0
585 -857 -921 0
585 -839 -980 0
585 -857 -962 0
585 -839 -1021 0
585 -857 -1003 0
585 -880 -939 0
585 -898 -921 0
585 -880 -980 0
585 -898 -962 0
585 -880 -1021 0
585 -898 -1003 0
585 -921 -980 0
585 -939 -962 0
585 -921 -1021 0
585 -939 -1003 0
585 -962 -1021 0
585 -980 -1003 0
586 -839 -899 0
586 -858 -880 0
586 -839 -940 0
586 -858 -921 0
586 -839 -981 0
586 -858 -962 0
586 -839 -1022 0
586 -858 -1003 0
586 -880 -940 0
586 -899 -921 0
586 -880 -981 0
586 -899 -962 0
586 -880 -1022 0
586 -899 -1003 0
586 -921 -981 0
586 -940 -962 0
586 -921 -1022 0
586 -940 -1003 0
586 -962 -1022 0
586 -981 -1003 0
587 -839 -900 0
587 -859 -880 0
587 -839 -941 0
587 -859 -921 0
587 -839 -982 0
587 -859 -962 0
587 -839 -1023 0
587 -859 -1003 0
587 -880 -941 0
587 -900 -921 0
587 -880 -982 0
587 -900 -962 0
587 -880 -1023 0
587 -900 -1003 0
587 -921 -982 0
587 -941 -962 0
587 -921 -1023 0
587 -941 -1003 0
587 -962 -1023 0
587 -982 -1003 0
588 -839 -901 0
588 -860 -880 0
588 -839 -942 0
588 -860 -921 0
588 -839 -983 0
588 -860 -962 0
588 -839 -1024 0
588 -860 -1003 0
588 -880 -942 0
588 -901 -921 0
588 -880 -983 0
588 -901 -962 0
588 -880 -1024 0
588 -901 -1003 0
588 -921 -983 0
588 -942 -962 0
588 -921 -1024 0
588 -942 -1003 0
588 -962 -1024 0
588 -983 -1003 0
589 -839 -902 0
589 -861 -880 0
589 -839 -943 0
589 -861 -921 0
589 -839 -984 0
589 -861 -962 0
589 -839 -1025 0
589 -861 -1003 0
589 -880 -943 0
589 -902 -921 0
589 -880 -984 0
589 -902 -962 0
589 -880 -1025 0
589 -902 -1003 0
589 -921 -984 0
589 -943 -962 0
589 -921 -1025 0
589 -943 -1003 0
589 -962 -1025 0
589 -984 -1003 0
590 -840 -882 0
590 -841 -881 0
590 -840 -923 0
590 -841 -922 0
590 -840 -964 0
590 -841 -963 0
590 -840 -1005 0
590 -841 -1004 0
590 -881 -923 0
590 -882 -922 0
590 -881 -964 0
590 -882 -963 0
590 -881 -1005 0
590 -882 -1004 0
590 -922 -964 0
590 -923 -963 0
590 -922 -1005 0
590 -923 -1004 0
590 -963 -1005 0
590 -964 -1004 0
591 -840 -883 0
591 -842 -881 0
591 -840 -924 0
591 -842 -922 0
591 -840 -965 0
591 -842 -963 0
591 -840 -1006 0
591 -842 -1004 0
591 -881 -924 0
591 -883 -922 0
591 -881 -965 0
591 -883 -963 0
591 -881 -1006 0
591 -883 -1004 0
591 -922 -965 0
591 -924 -963 0
591 -922 -1006 0
591 -924 -1004 0
591 -963 -1006 0
591 -965 -1004 0
592 -840 -884 0
592 -843 -881 0
592 -840 -925 0
592 -843 -922 0
592 -840 -966 0
592 -843 -963 0
592 -840 -1007 0
592 -843 -1004 0
592 -881 -925 0
592 -884 -922 0
592 -881 -966 0
592 -884 -963 0
592 -881 -1007 0
592 -884 -1004 0
592 -922 -966 0
592 -925 -963 0
592 -922 -1007 0
592 -925 -1004 0
592 -963 -1007 0
592 -966 -1004 0
593 -840 -885 0
593 -844 -881 0
593 -840 -926 0
593 -844 -922 0
593 -840 -967 0
593 -844 -963 0
593 -840 -1008 0
593 -844 -1004 0
593 -881 -926 0
593 -885 -922 0
593 -881 -967 0
593 -885 -963 0
593 -881 -1008 0
593 -885 -1004 0
593 -922 -967 0
593 -926 -963 0
593 -922 -1008 0
593 -926 -1004 0
593 -963 -1008 0
593 -967 -1004 0
594 -840 -886 0
594 -845 -881 0
594 -840 -927 0
594 -845 -922 0
594 -840 -968 0
594 -845 -963 0
594 -840 -1009 0
594 -845 -1004 0
594 -881 -927 0
594 -886 -922 0
594 -881 -968 0
594 -886 -963 0
594 -881 -1009 0
594 -886 -1004 0
594 -922 -968 0
594 -927 -963 0
594 -922 -1009 0
594 -927 -1004 0
594 -963 -1009 0
594 -968 -1004 0
595 -840 -887 0
595 -846 -881 0
595 -840 -928 0
595 -846 -922 0
595 -840 -969 0
595 -846 -963 0
595 -840 -1010 0
595 -846 -1004 0
595 -881 -928 0
595 -887 -922 0
595 -881 -969 0
595 -887 -963 0
595 -881 -1010 0
595 -887 -1004 0
595 -922 -969 0
595 -928 -963 0
595 -922 -1010 0
595 -928 -1004 0
595 -963 -1010 0
595 -969 -1004 0
596 -840 -888 0
596 -847 -881 0
596 -840 -929 0
596 -847 -922 0
596 -840 -970 0
596 -847 -963 0
596 -840 -1011 0
596 -847 -1004 0
596 -881 -929 0
596 -888 -922 0
596 -881 -970 0
596 -888 -963 0
596 -881 -1011 0
596 -888 -1004 0
596 -922 -970 0
596 -929 -963 0
596 -922 -1011 0
596 -929 -1004 0
596 -963 -1011 0
596 -970 -1004 0
597 -840 -889 0
597 -848 -881 0
597 -840 -930 0
597 -848 -922 0
597 -840 -971 0
597 -848 -963 0
597 -840 -1012 0
597 -848 -1004 0
597 -881 -930 0
597 -889 -922 0
597 -881 -971 0
597 -889 -963 0
597 -881 -1012 0
597 -889 -1004 0
597 -922 -971 0
597 -930 -963 0
597 -922 -1012 0
597 -930 -1004 0
597 -963 -1012 0
597 -971 -1004 0
598 -840 -890 0
598 -849 -881 0
598 -840 -931 0
598 -849 -922 0
598 -840 -972 0
598 -849 -963 0
598 -840 -1013 0
598 -849 -1004 0
598 -881 -931 0
598 -890 -922 0
598 -881 -972 0
598 -890 -963 0
598 -881 -1013 0
598 -890 -1004 0
598 -922 -972 0
598 -931 -963 0
598 -922 -1013 0
598 -931 -1004 0
598 -963 -1013 0
598 -972 -1004 0
599 -840 -891 0
599 -850 -881 0
599 -840 -932 0
599 -850 -922 0
599 -840 -973 0
599 -850 -963 0
599 -840 -1014 0
599 -850 -1004 0
599 -881 -932 0
599 -891 -922 0
599 -881 -973 0
599 -891 -963 0
599 -881 -1014 0
599 -891 -1004 0
599 -922 -973 0
599 -932 -963 0
599 -922 -1014 0
599 -932 -1004 0
599 -963 -1014 0
599 -973 -1004 0
600 -840 -892 0
600 -851 -881 0
600 -840 -933 0
600 -851 -922 0
600 -840 -974 0
600 -851 -963 0
600 -840 -1015 0
600 -851 -1004 0
600 -881 -933 0
600 -892 -922 0
600 -881 -974 0
600 -892 -963 0
600 -881 -1015 0
600 -892 -1004 0
600 -922 -974 0
600 -933 -963 0
600 -922 -1015 0
600 -933 -1004 0
600 -963 -1015 0
600 -974 -1004 0
601 -840 -893 0
601 -852 -881 0
601 -840 -934 0
601 -852 -922 0
601 -840 -975 0
601 -852 -963 0
601 -840 -1016 0
601 -852 -1004 0
601 -881 -934 0
601 -893 -922 0
601 -881 -975 0
601 -893 -963 0
601 -881 -1016 0
601 -893 -1004 0
601 -922 -975 0
601 -934 -963 0
601 -922 -1016 0
601 -934 -1004 0
601 -963 -1016 0
601 -975 -1004 0
602 -840 -894 0
602 -853 -881 0
602 -840 -935 0
602 -853 -922 0
602 -840 -976 0
602 -853 -963 0
602 -840 -1017 0
602 -853 -1004 0
602 -881 -935 0
602 -894 -922 0
602 -881 -976 0
602 -894 -963 0
602 -881 -1017 0
602 -894 -1004 0
602 -922 -976 0
602 -935 -963 0
602 -922 -1017 0
602 -935 -1004 0
602 -963 -1017 0
602 -976 -1004 0
603 -840 -895 0
603 -854 -881 0
603 -840 -936 0
603 -854 -922 0
603 -840 -977 0
603 -854 -963 0
603 -840 -1018 0
603 -854 -1004 0
603 -881 -936 0
603 -895 -922 0
603 -881 -977 0
603 -895 -963 0
603 -881 -1018 0
603 -895 -1004 0
603 -922 -977 0
603 -936 -963 0
603 -922 -1018 0
603 -936 -1004 0
603 -963 -1018 0
603 -977 -1004 0
604 -840 -896 0
604 -855 -881 0
604 -840 -937 0
604 -855 -922 0
604 -840 -978 0
604 -855 -963 0
604 -840 -1019 0
604 -855 -1004 0
604 -881 -937 0
604 -896 -922 0
604 -881 -978 0
604 -896 -963 0
604 -881 -1019 0
604 -896 -1004 0
604 -922 -978 0
604 -937 -963 0
604 -922 -1019 0
604 -937 -1004 0
604 -963 -1019 0
604 -978 -1004 0
605 -840 -897 0
605 -856 -881 0
605 -840 -938 0
605 -856 -922 0
605 -840 -979 0
605 -856 -963 0
605 -840 -1020 0
605 -856 -1004 0
605 -881 -938 0
605 -897 -922 0
605 -881 -979 0
605 -897 -963 0
605 -881 -1020 0
605 -897 -1004 0
605 -922 -979 0
605 -938 -963 0
605 -922 -1020 0
605 -938 -1004 0
605 -963 -1020 0
605 -979 -1004 0
606 -840 -898 0
606 -857 -881 0
606 -840 -939 0
606 -857 -922 0
606 -840 -980 0
606 -857 -963 0
606 -840 -1021 0
606 -857 -1004 0
606 -881 -939 0
606 -898 -922 0
606 -881 -980 0
606 -898 -963 0
606 -881 -1021 0
606 -898 -1004 0
606 -922 -980 0
606 -939 -963 0
606 -922 -1021 0
606 -939 -1004 0
606 -963 -1021 0
606 -980 -1004 0
607 -840 -899 0
607 -858 -881 0
607 -840 -940 0
607 -858 -922 0
607 -840 -981 0
607 -858 -963 0
607 -840 -1022 0
607 -858 -1004 0
607 -881 -940 0
607 -899 -922 0
607 -881 -981 0
607 -899 -963 0
607 -881 -1022 0
607 -899 -1004 0
607 -922 -981 0
607 -940 -963 0
607 -922 -1022 0
607 -940 -1004 0
607 -963 -1022 0
607 -981 -1004 0
608 -840 -900 0
608 -859 -881 0
608 -840 -941 0
608 -859 -922 0
608 -840 -982 0
608 -859 -963 0
608 -840 -1023 0
608 -859 -1004 0
608 -881 -941 0
608 -900 -922 0
608 -881 -982 0
608 -900 -963 0
608 -881 -1023 0
608 -900 -1004 0
608 -922 -982 0
608 -941 -963 0
608 -922 -1023 0
608 -941 -1004 0
608 -963 -1023 0
608 -982 -1004 0
609 -840 -901 0
609 -860 -881 0
609 -840 -942 0
609 -860 -922 0
609 -840 -983 0
609 -860 -963 0
609 -840 -1024 0
609 -860 -1004 0
609 -881 -942 0
609 -901 -922 0
609 -881 -983 0
609 -901 -963 0
609 -881 -1024 0
609 -901 -1004 0
609 -922 -983 0
609 -942 -963 0
609 -922 -1024 0
609 -942 -1004 0
609 -963 -1024 0
609 -983 -1004 0
610 -840 -902 0
610 -861 -881 0
610 -840 -943 0
610 -861 -922 0
610 -840 -984 0
610 -861 -963 0
610 -840 -1025 0
610 -861 -1004 0
610 -881 -943 0
610 -902 -922 0
610 -881 -984 0
610 -902 -963 0
610 -881 -1025 0
610 -902 -1004 0
610 -922 -984 0
610 -943 -963 0
610 -922 -1025 0
610 -943 -1004 0
610 -963 -1025 0
610 -984 -1004 0
611 -841 -883 0
611 -842 -882 0
611 -841 -924 0
611 -842 -923 0
611 -841 -965 0
611 -842 -964 0
611 -841 -1006 0
611 -842 -1005 0
611 -882 -924 0
611 -883 -923 0
611 -882 -965 0
611 -883 -964 0
611 -882 -1006 0
611 -883 -1005 0
611 -923 -965 0
611 -924 -964 0
611 -923 -1006 0
611 -924 -1005 0
611 -964 -1006 0
611 -965 -1005 0
612 -841 -884 0
612 -843 -882 0
612 -841 -925 0
612 -843 -923 0
612 -841 -966 0
612 -843 -964 0
612 -841 -1007 0
612 -843 -1005 0
612 -882 -925 0
612 -884 -923 0
612 -882 -966 0
612 -884 -964 0
612 -882 -1007 0
612 -884 -1005 0
612 -923 -966 0
612 -925 -964 0
612 -923 -1007 0
612 -925 -1005 0
612 -964 -1007 0
612 -966 -1005 0
613 -841 -885 0
613 -844 -882 0
613 -841 -926 0
613 -844 -923 0
613 -841 -967 0
613 -844 -964 0
613 -841 -1008 0
613 -844 -1005 0
613 -882 -926 0
613 -885 -923 0
613 -882 -967 0
613 -885 -964 0
613 -882 -1008 0
613 -885 -1005 0
613 -923 -967 0
613 -926 -964 0
613 -923 -1008 0
613 -926 -1005 0
613 -964 -1008 0
613 -967 -1005 0
614 -841 -886 0
614 -845 -882 0
614 -841 -927 0
614 -845 -923 0
614 -841 -968 0
614 -845 -964 0
614 -841 -1009 0
614 -845 -1005 0
614 -882 -927 0
614 -886 -923 0
614 -882 -968 0
614 -886 -964 0
614 -882 -1009 0
614 -886 -1005 0
614 -923 -968 0
614 -927 -964 0
614 -923 -1009 0
614 -927 -1005 0
614 -964 -1009 0
614 -968 -1005 0
615 -841 -887 0
615 -846 -882 0
615 -841 -928 0
615 -846 -923 0
615 -841 -969 0
615 -846 -964 0
615 -841 -1010 0
615 -846 -1005 0
615 -882 -928 0
615 -887 -923 0
615 -882 -969 0
615 -887 -964 0
615 -882 -1010 0
615 -887 -1005 0
615 -923 -969 0
615 -928 -964 0
615 -923 -1010 0
615 -928 -1005 0
615 -964 -1010 0
615 -969 -1005 0
616 -841 -888 0
616 -847 -882 0
616 -841 -929 0
616 -847 -923 0
616 -841 -970 0
616 -847 -964 0
616 -841 -1011 0
616 -847 -1005 0
616 -882 -929 0
616 -888 -923 0
616 -882 -970 0
616 -888 -964 0
616 -882 -1011 0
616 -888 -1005 0
616 -923 -970 0
616 -929 -964 0
616 -923 -1011 0
616 -929 -1005 0
616 -964 -1011 0
616 -970 -1005 0
617 -841 -889 0
617 -848 -882 0
617 -841 -930 0
617 -848 -923 0
617 -841 -971 0
617 -848 -964 0
617 -841 -1012 0
617 -848 -1005 0
617 -882 -930 0
617 -889 -923 0
617 -882 -971 0
617 -889 -964 0
617 -882 -1012 0
617 -889 -1005 0
617 -923 -971 0
617 -930 -964 0
617 -923 -1012 0
617 -930 -1005 0
617 -964 -1012 0
617 -971 -1005 0
618 -841 -890 0
618 -849 -882 0
618 -841 -931 0
618 -849 -923 0
618 -841 -972 0
618 -849 -964 0
618 -841 -1013 0
618 -849 -1005 0
618 -882 -931 0
618 -890 -923 0
618 -882 -972 0
618 -890 -964 0
618 -882 -1013 0
618 -890 -1005 0
618 -923 -972 0
618 -931 -964 0
618 -923 -1013 0
618 -931 -1005 0
618 -964 -1013 0
618 -972 -1005 0
619 -841 -891 0
619 -850 -882 0
619 -841 -932 0
619 -850 -923 0
619 -841 -973 0
619 -850 -964 0
619 -841 -1014 0
619 -850 -1005 0
619 -882 -932 0
619 -891 -923 0
619 -882 -973 0
619 -891 -964 0
619 -882 -1014 0
619 -891 -1005 0
619 -923 -973 0
619 -932 -964 0
619 -923 -1014 0
619 -932 -1005 0
619 -964 -1014 0
619 -973 -1005 0
620 -841 -892 0
620 -851 -882 0
620 -841 -933 0
620 -851 -923 0
620 -841 -974 0
620 -851 -964 0
620 -841 -1015 0
620 -851 -1005 0
620 -882 -933 0
620 -892 -923 0
620 -882 -974 0
620 -892 -964 0
620 -882 -1015 0
620 -892 -1005 0
620 -923 -974 0
620 -933 -964 0
620 -923 -1015 0
620 -933 -1005 0
620 -964 -1015 0
620 -974 -1005 0
621 -841 -893 0
621 -852 -882 0
621 -841 -934 0
621 -852 -923 0
621 -841 -975 0
621 -852 -964 0
621 -841 -1016 0
621 -852 -1005 0
621 -882 -934 0
621 -893 -923 0
621 -882 -975 0
621 -893 -964 0
621 -882 -1016 0
621 -893 -1005 0
621 -923 -975 0
621 -934 -964 0
621 -923 -1016 0
621 -934 -1005 0
621 -964 -1016 0
621 -975 -1005 0
622 -841 -894 0
622 -853 -882 0
622 -841 -935 0
622 -853 -923 0
622 -841 -976 0
622 -853 -964 0
622 -841 -1017 0
622 -853 -1005 0
622 -882 -935 0
622 -894 -923 0
622 -882 -976 0
622 -894 -964 0
622 -882 -1017 0
622 -894 -1005 0
622 -923 -976 0
622 -935 -964 0
622 -923 -1017 0
622 -935 -1005 0
622 -964 -1017 0
622 -976 -1005 0
623 -841 -895 0
623 -854 -882 0
623 -841 -936 0
623 -854 -923 0
623 -841 -977 0
623 -854 -964 0
623 -841 -1018 0
623 -854 -1005 0
623 -882 -936 0
623 -895 -923 0
623 -882 -977 0
623 -895 -964 0
623 -882 -1018 0
623 -895 -1005 0
623 -923 -977 0
623 -936 -964 0
623 -923 -1018 0
623 -936 -1005 0
623 -964 -1018 0
623 -977 -1005 0
624 -841 -896 0
624 -855 -882 0
624 -841 -937 0
624 -855 -923 0
624 -841 -978 0
624 -855 -964 0
624 -841 -1019 0
624 -855 -1005 0
624 -882 -937 0
624 -896 -923 0
624 -882 -978 0
624 -896 -964 0
624 -882 -1019 0
624 -896 -1005 0
624 -923 -978 0
624 -937 -964 0
624 -923 -1019 0
624 -937 -1005 0
624 -964 -1019 0
624 -978 -1005 0
625 -841 -897 0
625 -856 -882 0
625 -841 -938 0
625 -856 -923 0
625 -841 -979 0
625 -856 -964 0
625 -841 -1020 0
625 -856 -1005 0
625 -882 -938 0
625 -897 -923 0
625 -882 -979 0
625 -897 -964 0
625 -882 -1020 0
625 -897 -1005 0
625 -923 -979 0
625 -938 -964 0
625 -923 -1020 0
625 -938 -1005 0
625 -964 -1020 0
625 -979 -1005 0
626 -841 -898 0
626 -857 -882 0
626 -841 -939 0
626 -857 -923 0
626 -841 -980 0
626 -857 -964 0
626 -841 -1021 0
626 -857 -1005 0
626 -882 -939 0
626 -898 -923 0
626 -882 -980 0
626 -898 -964 0
626 -882 -1021 0
626 -898 -1005 0
626 -923 -980 0
626 -939 -964 0
626 -923 -1021 0
626 -939 -1005 0
626 -964 -1021 0
626 -980 -1005 0
627 -841 -899 0
627 -858 -882 0
627 -841 -940 0
627 -858 -923 0
627 -841 -981 0
627 -858 -964 0
627 -841 -1022 0
627 -858 -1005 0
627 -882 -940 0
627 -899 -923 0
627 -882 -981 0
627 -899 -964 0
627 -882 -1022 0
627 -899 -1005 0
627 -923 -981 0
627 -940 -964 0
627 -923 -1022 0
627 -940 -1005 0
627 -964 -1022 0
627 -981 -1005 0
628 -841 -900 0
628 -859 -882 0
628 -841 -941 0
628 -859 -923 0
628 -841 -982 0
628 -859 -964 0
628 -841 -1023 0
628 -859 -1005 0
628 -882 -941 0
628 -900 -923 0
628 -882 -982 0
628 -900 -964 0
628 -882 -1023 0
628 -900 -1005 0
628 -923 -982 0
628 -941 -964 0
628 -923 -1023 0
628 -941 -1005 0
628 -964 -1023 0
628 -982 -1005 0
629 -841 -901 0
629 -860 -882 0
629 -841 -942 0
629 -860 -923 0
629 -841 -983 0
629 -860 -964 0
629 -841 -1024 0
629 -860 -1005 0
629 -882 -942 0
629 -901 -923 0
629 -882 -983 0
629 -901 -964 0
629 -882 -1024 0
629 -901 -1005 0
629 -923 -983 0
629 -942 -964 0
629 -923 -1024 0
629 -942 -1005 0
629 -964 -1024 0
629 -983 -1005 0
630 -841 -902 0
630 -861 -882 0
630 -841 -943 0
630 -861 -923 0
630 -841 -984 0
630 -861 -964 0
630 -841 -1025 0
630 -861 -1005 0
630 -882 -943 0
630 -902 -923 0
630 -882 -984 0
630 -902 -964 0
630 -882 -1025 0
630 -902 -1005 0
630 -923 -984 0
630 -943 -964 0
630 -923 -1025 0
630 -943 -1005 0
630 -964 -1025 0
630 -984 -1005 0
631 -842 -884 0
631 -843 -883 0
631 -842 -925 0
631 -843 -924 0
631 -842 -966 0
631 -843 -965 0
631 -842 -1007 0
631 -843 -1006 0
631 -883 -925 0
631 -884 -924 0
631 -883 -966 0
631 -884 -965 0
631 -883 -1007 0
631 -884 -1006 0
631 -924 -966 0
631 -925 -965 0
631 -924 -1007 0
631 -925 -1006 0
631 -965 -1007 0
631 -966 -1006 0
632 -842 -885 0
632 -844 -883 0
632 -842 -926 0
632 -844 -924 0
632 -842 -967 0
632 -844 -965 0
632 -842 -1008 0
632 -844 -1006 0
632 -883 -926 0
632 -885 -924 0
632 -883 -967 0
632 -885 -965 0
632 -883 -1008 0
632 -885 -1006 0
632 -924 -967 0
632 -926 -965 0
632 -924 -1008 0
632 -926 -1006 0
632 -965 -1008 0
632 -967 -1006 0
633 -842 -886 0
633 -845 -883 0
633 -842 -927 0
633 -845 -924 0
633 -842 -968 0
633 -845 -965 0
633 -842 -1009 0
633 -845 -1006 0
633 -883 -927 0
633 -886 -924 0
633 -883 -968 0
633 -886 -965 0
633 -883 -1009 0
633 -886 -1006 0
633 -924 -968 0
633 -927 -965 0
633 -924 -1009 0
633 -927 -1006 0
633 -965 -1009 0
633 -968 -1006 0
634 -842 -887 0
634 -846 -883 0
634 -842 -928 0
634 -846 -924 0
634 -842 -969 0
634 -846 -965 0
634 -842 -1010 0
634 -846 -1006 0
634 -883 -928 0
634 -887 -924 0
634 -883 -969 0
634 -887 -965 0
634 -883 -1010 0
634 -887 -1006 0
634 -924 -969 0
634 -928 -965 0
634 -924 -1010 0
634 -928 -1006 0
634 -965 -1010 0
634 -969 -1006 0
635 -842 -888 0
635 -847 -883 0
635 -842 -929 0
635 -847 -924 0
635 -842 -970 0
635 -847 -965 0
635 -842 -1011 0
635 -847 -1006 0
635 -883 -929 0
635 -888 -924 0
635 -883 -970 0
635 -888 -965 0
635 -883 -1011 0
635 -888 -1006 0
635 -924 -970 0
635 -929 -965 0
635 -924 -1011 0
635 -929 -1006 0
635 -965 -1011 0
635 -970 -1006 0
636 -842 -889 0
636 -848 -883 0
636 -842 -930 0
636 -848 -924 0
636 -842 -971 0
636 -848 -965 0
636 -842 -1012 0
636 -848 -1006 0
636 -883 -930 0
636 -889 -924 0
636 -883 -971 0
636 -889 -965 0
636 -883 -1012 0
636 -889 -1006 0
636 -924 -971 0
636 -930 -965 0
636 -924 -1012 0
636 -930 -1006 0
636 -965 -1012 0
636 -971 -1006 0
637 -842 -890 0
637 -849 -883 0
637 -842 -931 0
637 -849 -924 0
637 -842 -972 0
637 -849 -965 0
637 -842 -1013 0
637 -849 -1006 0
637 -883 -931 0
637 -890 -924 0
637 -883 -972 0
637 -890 -965 0
637 -883 -1013 0
637 -890 -1006 0
637 -924 -972 0
637 -931 -965 0
637 -924 -1013 0
637 -931 -1006 0
637 -965 -1013 0
637 -972 -1006 0
638 -842 -891 0
638 -850 -883 0
638 -842 -932 0
638 -850 -924 0
638 -842 -973 0
638 -850 -965 0
638 -842 -1014 0
638 -850 -1006 0
638 -883 -932 0
638 -891 -924 0
638 -883 -973 0
638 -891 -965 0
638 -883 -1014 0
638 -891 -1006 0
638 -924 -973 0
638 -932 -965 0
638 -924 -1014 0
638 -932 -1006 0
638 -965 -1014 0
638 -973 -1006 0
639 -842 -892 0
639 -851 -883 0
639 -842 -933 0
639 -851 -924 0
639 -842 -974 0
639 -851 -965 0
639 -842 -1015 0
639 -851 -1006 0
639 -883 -933 0
639 -892 -924 0
639 -883 -974 0
639 -892 -965 0
639 -883 -1015 0
639 -892 -1006 0
639 -924 -974 0
639 -933 -965 0
639 -924 -1015 0
639 -933 -1006 0
639 -965 -1015 0
639 -974 -1006 0
640 -842 -893 0
640 -852 -883 0
640 -842 -934 0
640 -852 -924 0
640 -842 -975 0
640 -852 -965 0
640 -842 -1016 0
640 -852 -1006 0
640 -883 -934 0
640 -893 -924 0
640 -883 -975 0
640 -893 -965 0
640 -883 -1016 0
640 -893 -1006 0
640 -924 -975 0
640 -934 -965 0
640 -924 -1016 0
640 -934 -1006 0
640 -965 -1016 0
640 -975 -1006 0
641 -842 -894 0
641 -853 -883 0
641 -842 -935 0
641 -853 -924 0
641 -842 -976 0
641 -853 -965 0
641 -842 -1017 0
641 -853 -1006 0
641 -883 -935 0
641 -894 -924 0
641 -883 -976 0
641 -894 -965 0
641 -883 -1017 0
641 -894 -1006 0
641 -924 -976 0
641 -935 -965 0
641 -924 -1017 0
641 -935 -1006 0
641 -965 -1017 0
641 -976 -1006 0
642 -842 -895 0
642 -854 -883 0
642 -842 -936 0
642 -854 -924 0
642 -842 -977 0
642 -854 -965 0
642 -842 -1018 0
642 -854 -1006 0
642 -883 -936 0
642 -895 -924 0
642 -883 -977 0
642 -895 -965 0
642 -883 -1018 0
642 -895 -1006 0
642 -924 -977 0
642 -936 -965 0
642 -924 -1018 0
642 -936 -1006 0
642 -965 -1018 0
642 -977 -1006 0
643 -842 -896 0
643 -855 -883 0
643 -842 -937 0
643 -855 -924 0
643 -842 -978 0
643 -855 -965 0
643 -842 -1019 0
643 -855 -1006 0
643 -883 -937 0
643 -896 -924 0
643 -883 -978 0
643 -896 -965 0
643 -883 -1019 0
643 -896 -1006 0
643 -924 -978 0
643 -937 -965 0
643 -924 -1019 0
643 -937 -1006 0
643 -965 -1019 0
643 -978 -1006 0
644 -842 -897 0
644 -856 -883 0
644 -842 -938 0
644 -856 -924 0
644 -842 -979 0
644 -856 -965 0
644 -842 -1020 0
644 -856 -1006 0
644 -883 -938 0
644 -897 -924 0
644 -883 -979 0
644 -897 -965 0
644 -883 -1020 0
644 -897 -1006 0
644 -924 -979 0
644 -938 -965 0
644 -924 -1020 0
644 -938 -1006 0
644 -965 -1020 0
644 -979 -1006 0
645 -842 -898 0
645 -857 -883 0
645 -842 -939 0
645 -857 -924 0
645 -842 -980 0
645 -857 -965 0
645 -842 -1021 0
645 -857 -1006 0
645 -883 -939 0
645 -898 -924 0
645 -883 -980 0
645 -898 -965 0
645 -883 -1021 0
645 -898 -1006 0
645 -924 -980 0
645 -939 -965 0
645 -924 -1021 0
645 -939 -1006 0
645 -965 -1021 0
645 -980 -1006 0
646 -842 -899 0
646 -858 -883 0
646 -842 -940 0
646 -858 -924 0
646 -842 -981 0
646 -858 -965 0
646 -842 -1022 0
646 -858 -1006 0
646 -883 -940 0
646 -899 -924 0
646 -883 -981 0
646 -899 -965 0
646 -883 -1022 0
646 -899 -1006 0
646 -924 -981 0
646 -940 -965 0
646 -924 -1022 0
646 -940 -1006 0
646 -965 -1022 0
646 -981 -1006 0
647 -842 -900 0
647 -859 -883 0
647 -842 -941 0
647 -859 -924 0
647 -842 -982 0
647 -859 -965 0
647 -842 -1023 0
647 -859 -1006 0
647 -883 -941 0
647 -900 -924 0
647 -883 -982 0
647 -900 -965 0
647 -883 -1023 0
647 -900 -1006 0
647 -924 -982 0
647 -941 -965 0
647 -924 -1023 0
647 -941 -1006 0
647 -965 -1023 0
647 -982 -1006 0
648 -842 -901 0
648 -860 -883 0
648 -842 -942 0
648 -860 -924 0
648 -842 -983 0
648 -860 -965 0
648 -842 -1024 0
648 -860 -1006 0
648 -883 -942 0
648 -901 -924 0
648 -883 -983 0
648 -901 -965 0
648 -883 -1024 0
648 -901 -1006 0
648 -924 -983 0
648 -942 -965 0
648 -924 -1024 0
648 -942 -1006 0
648 -965 -1024 0
648 -983 -1006 0
649 -842 -902 0
649 -861 -883 0
649 -842 -943 0
649 -861 -924 0
649 -842 -984 0
649 -861 -965 0
649 -842 -1025 0
649 -861 -1006 0
649 -883 -943 0
649 -902 -924 0
649 -883 -984 0
649 -902 -965 0
649 -883 -1025 0
649 -902 -1006 0
649 -924 -984 0
649 -943 -965 0
649 -924 -1025 0
649 -943 -1006 0
649 -965 -1025 0
649 -984 -1006 0
650 -843 -885 0
650 -844 -884 0
650 -843 -926 0
650 -844 -925 0
650 -843 -967 0
650 -844 -966 0
650 -843 -1008 0
650 -844 -1007 0
650 -884 -926 0
650 -885 -925 0
650 -884 -967 0
650 -885 -966 0
650 -884 -1008 0
650 -885 -1007 0
650 -925 -967 0
650 -926 -966 0
650 -925 -1008 0
650 -926 -1007 0
650 -966 -1008 0
650 -967 -1007 0
651 -843 -886 0
651 -845 -884 0
651 -843 -927 0
651 -845 -925 0
651 -843 -968 0
651 -845 -966 0
651 -843 -1009 0
651 -845 -1007 0
651 -884 -927 0
651 -886 -925 0
651 -884 -968 0
651 -886 -966 0
651 -884 -1009 0
651 -886 -1007 0
651 -925 -968 0
651 -927 -966 0
651 -925 -1009 0
651 -927 -1007 0
651 -966 -1009 0
651 -968 -1007 0
652 -843 -887 0
652 -846 -884 0
652 -843 -928 0
652 -846 -925 0
652 -843 -969 0
652 -846 -966 0
652 -843 -1010 0
652 -846 -1007 0
652 -884 -928 0
652 -887 -925 0
652 -884 -969 0
652 -887 -966 0
652 -884 -1010 0
652 -887 -1007 0
652 -925 -969 0
652 -928 -966 0
652 -925 -1010 0
652 -928 -1007 0
652 -966 -1010 0
652 -969 -1007 0
653 -843 -888 0
653 -847 -884 0
653 -843 -929 0
653 -847 -925 0
653 -843 -970 0
653 -847 -966 0
653 -843 -1011 0
653 -847 -1007 0
653 -884 -929 0
653 -888 -925 0
653 -884 -970 0
653 -888 -966 0
653 -884 -1011 0
653 -888 -1007 0
653 -925 -970 0
653 -929 -966 0
653 -925 -1011 0
653 -929 -1007 0
653 -966 -1011 0
653 -970 -1007 0
654 -843 -889 0
654 -848 -884 0
654 -843 -930 0
654 -848 -925 0
654 -843 -971 0
654 -848 -966 0
654 -843 -1012 0
654 -848 -1007 0
654 -884 -930 0
654 -889 -925 0
654 -884 -971 0
654 -889 -966 0
654 -884 -1012 0
654 -889 -1007 0
654 -925 -971 0
654 -930 -966 0
654 -925 -1012 0
654 -930 -1007 0
654 -966 -1012 0
654 -971 -1007 0
655 -843 -890 0
655 -849 -884 0
655 -843 -931 0
655 -849 -925 0
655 -843 -972 0
655 -849 -966 0
655 -843 -1013 0
655 -849 -1007 0
655 -884 -931 0
655 -890 -925 0
655 -884 -972 0
655 -890 -966 0
655 -884 -1013 0
655 -890 -1007 0
655 -925 -972 0
655 -931 -966 0
655 -925 -1013 0
655 -931 -1007 0
655 -966 -1013 0
655 -972 -1007 0
656 -843 -891 0
656 -850 -884 0
656 -843 -932 0
656 -850 -925 0
656 -843 -973 0
656 -850 -966 0
656 -843 -1014 0
656 -850 -1007 0
656 -884 -932 0
656 -891 -925 0
656 -884 -973 0
656 -891 -966 0
656 -884 -1014 0
656 -891 -1007 0
656 -925 -973 0
656 -932 -966 0
656 -925 -1014 0
656 -932 -1007 0
656 -966 -1014 0
656 -973 -1007 0
657 -843 -892 0
657 -851 -884 0
657 -843 -933 0
657 -851 -925 0
657 -843 -974 0
657 -851 -966 0
657 -843 -1015 0
657 -851 -1007 0
657 -884 -933 0
657 -892 -925 0
657 -884 -974 0
657 -892 -966 0
657 -884 -1015 0
657 -892 -1007 0
657 -925 -974 0
657 -933 -966 0
657 -925 -1015 0
657 -933 -1007 0
657 -966 -1015 0
657 -974 -1007 0
658 -843 -893 0
658 -852 -884 0
658 -843 -934 0
658 -852 -925 0
658 -843 -975 0
658 -852 -966 0
658 -843 -1016 0
658 -852 -1007 0
658 -884 -934 0
658 -893 -925 0
658 -884 -975 0
658 -893 -966 0
658 -884 -1016 0
658 -893 -1007 0
658 -925 -975 0
658 -934 -966 0
658 -925 -1016 0
658 -934 -1007 0
658 -966 -1016 0
658 -975 -1007 0
659 -843 -894 0
659 -853 -884 0
659 -843 -935 0
659 -853 -925 0
659 -843 -976 0
659 -853 -966 0
659 -843 -1017 0
659 -853 -1007 0
659 -884 -935 0
659 -894 -925 0
659 -884 -976 0
659 -894 -966 0
659 -884 -1017 0
659 -894 -1007 0
659 -925 -976 0
659 -935 -966 0
659 -925 -1017 0
659 -935 -1007 0
659 -966 -1017 0
659 -976 -1007 0
660 -843 -895 0
660 -854 -884 0
660 -843 -936 0
660 -854 -925 0
660 -843 -977 0
660 -854 -966 0
660 -843 -1018 0
660 -854 -1007 0
660 -884 -936 0
660 -895 -925 0
660 -884 -977 0
660 -895 -966 0
660 -884 -1018 0
660 -895 -1007 0
660 -925 -977 0
660 -936 -966 0
660 -925 -1018 0
660 -936 -1007 0
660 -966 -1018 0
660 -977 -1007 0
661 -843 -896 0
661 -855 -884 0
661 -843 -937 0
661 -855 -925 0
661 -843 -978 0
661 -855 -966 0
661 -843 -1019 0
661 -855 -1007 0
661 -884 -937 0
661 -896 -925 0
661 -884 -978 0
661 -896 -966 0
661 -884 -1019 0
661 -896 -1007 0
661 -925 -978 0
661 -937 -966 0
661 -925 -1019 0
661 -937 -1007 0
661 -966 -1019 0
661 -978 -1007 0
662 -843 -897 0
662 -856 -884 0
662 -843 -938 0
662 -856 -925 0
662 -843 -979 0
662 -856 -966 0
662 -843 -1020 0
662 -856 -1007 0
662 -884 -938 0
662 -897 -925 0
662 -884 -979 0
662 -897 -966 0
662 -884 -1020 0
662 -897 -1007 0
662 -925 -979 0
662 -938 -966 0
662 -925 -1020 0
662 -938 -1007 0
662 -966 -1020 0
662 -979 -1007 0
663 -843 -898 0
663 -857 -884 0
663 -843 -939 0
663 -857 -925 0
663 -843 -980 0
663 -857 -966 0
663 -843 -1021 0
663 -857 -1007 0
663 -884 -939 0
663 -898 -925 0
663 -884 -980 0
663 -898 -966 0
663 -884 -1021 0
663 -898 -1007 0
663 -925 -980 0
663 -939 -966 0
663 -925 -1021 0
663 -939 -1007 0
663 -966 -1021 0
663 -980 -1007 0
664 -843 -899 0
664 -858 -884 0
664 -843 -940 0
664 -858 -925 0
664 -843 -981 0
664 -858 -966 0
664 -843 -1022 0
664 -858 -1007 0
664 -884 -940 0
664 -899 -925 0
664 -884 -981 0
664 -899 -966 0
664 -884 -1022 0
664 -899 -1007 0
664 -925 -981 0
664 -940 -966 0
664 -925 -1022 0
664 -940 -1007 0
664 -966 -1022 0
664 -981 -1007 0
665 -843 -900 0
665 -859 -884 0
665 -843 -941 0
665 -859 -925 0
665 -843 -982 0
665 -859 -966 0
665 -843 -1023 0
665 -859 -1007 0
665 -884 -941 0
665 -900 -925 0
665 -884 -982 0
665 -900 -966 0
665 -884 -1023 0
665 -900 -1007 0
665 -925 -982 0
665 -941 -966 0
665 -925 -1023 0
665 -941 -1007 0
665 -966 -1023 0
665 -982 -1007 0
666 -843 -901 0
666 -860 -884 0
666 -843 -942 0
666 -860 -925 0
666 -843 -983 0
666 -860 -966 0
666 -843 -1024 0
666 -860 -1007 0
666 -884 -942 0
666 -901 -925 0
666 -884 -983 0
666 -901 -966 0
666 -884 -1024 0
666 -901 -1007 0
666 -925 -983 0
666 -942 -966 0
666 -925 -1024 0
666 -942 -1007 0
666 -966 -1024 0
666 -983 -1007 0
667 -843 -902 0
667 -861 -884 0
667 -843 -943 0
667 -861 -925 0
667 -843 -984 0
667 -861 -966 0
667 -843 -1025 0
667 -861 -1007 0
667 -884 -943 0
667 -902 -925 0
667 -884 -984 0
667 -902 -966 0
667 -884 -1025 0
667 -902 -1007 0
667 -925 -984 0
667 -943 -966 0
667 -925 -1025 0
667 -943 -1007 0
667 -966 -1025 0
667 -984 -1007 0
668 -844 -886 0
668 -845 -885 0
668 -844 -927 0
668 -845 -926 0
668 -844 -968 0
668 -845 -967 0
668 -844 -1009 0
668 -845 -1008 0
668 -885 -927 0
668 -886 -926 0
668 -885 -968 0
668 -886 -967 0
668 -885 -1009 0
668 -886 -1008 0
668 -926 -968 0
668 -927 -967 0
668 -926 -1009 0
668 -927 -1008 0
668 -967 -1009 0
668 -968 -1008 0
669 -844 -887 0
669 -846 -885 0
669 -844 -928 0
669 -846 -926 0
669 -844 -969 0
669 -846 -967 0
669 -844 -1010 0
669 -846 -1008 0
669 -885 -928 0
669 -887 -926 0
669 -885 -969 0
669 -887 -967 0
669 -885 -1010 0
669 -887 -1008 0
669 -926 -969 0
669 -928 -967 0
669 -926 -1010 0
669 -928 -1008 0
669 -967 -1010 0
669 -969 -1008 0
670 -844 -888 0
670 -847 -885 0
670 -844 -929 0
670 -847 -926 0
670 -844 -970 0
670 -847 -967 0
670 -844 -1011 0
670 -847 -1008 0
670 -885 -929 0
670 -888 -926 0
670 -885 -970 0
670 -888 -967 0
670 -885 -1011 0
670 -888 -1008 0
670 -926 -970 0
670 -929 -967 0
670 -926 -1011 0
670 -929 -1008 0
670 -967 -1011 0
670 -970 -1008 0
671 -844 -889 0
671 -848 -885 0
671 -844 -930 0
671 -848 -926 0
671 -844 -971 0
671 -848 -967 0
671 -844 -1012 0
671 -848 -1008 0
671 -885 -930 0
671 -889 -926 0
671 -885 -971 0
671 -889 -967 0
671 -885 -1012 0
671 -889 -1008 0
671 -926 -971 0
671 -930 -967 0
671 -926 -1012 0
671 -930 -1008 0
671 -967 -1012 0
671 -971 -1008 0
672 -844 -890 0
672 -849 -885 0
672 -844 -931 0
672 -849 -926 0
672 -844 -972 0
672 -849 -967 0
672 -844 -1013 0
672 -849 -1008 0
672 -885 -931 0
672 -890 -926 0
672 -885 -972 0
672 -890 -967 0
672 -885 -1013 0
672 -890 -1008 0
672 -926 -972 0
672 -931 -967 0
672 -926 -1013 0
672 -931 -1008 0
672 -967 -1013 0
672 -972 -1008 0
673 -844 -891 0
673 -850 -885 0
673 -844 -932 0
673 -850 -926 0
673 -844 -973 0
673 -850 -967 0
673 -844 -1014 0
673 -850 -1008 0
673 -885 -932 0
673 -891 -926 0
673 -885 -973 0
673 -891 -967 0
673 -885 -1014 0
673 -891 -1008 0
673 -926 -973 0
673 -932 -967 0
673 -926 -1014 0
673 -932 -1008 0
673 -967 -1014 0
673 -973 -1008 0
674 -844 -892 0
674 -851 -885 0
674 -844 -933 0
674 -851 -926 0
674 -844 -974 0
674 -851 -967 0
674 -844 -1015 0
674 -851 -1008 0
674 -885 -933 0
674 -892 -926 0
674 -885 -974 0
674 -892 -967 0
674 -885 -1015 0
674 -892 -1008 0
674 -926 -974 0
674 -933 -967 0
674 -926 -1015 0
674 -933 -1008 0
674 -967 -1015 0
674 -974 -1008 0
675 -844 -893 0
675 -852 -885 0
675 -844 -934 0
675 -852 -926 0
675 -844 -975 0
675 -852 -967 0
675 -844 -1016 0
675 -852 -1008 0
675 -885 -934 0
675 -893 -926 0
675 -885 -975 0
675 -893 -967 0
675 -885 -1016 0
675 -893 -1008 0
675 -926 -975 0
675 -934 -967 0
675 -926 -1016 0
675 -934 -1008 0
675 -967 -1016 0
675 -975 -1008 0
676 -844 -894 0
676 -853 -885 0
676 -844 -935 0
676 -853 -926 0
676 -844 -976 0
676 -853 -967 0
676 -844 -1017 0
676 -853 -1008 0
676 -885 -935 0
676 -894 -926 0
676 -885 -976 0
676 -894 -967 0
676 -885 -1017 0
676 -894 -1008 0
676 -926 -976 0
676 -935 -967 0
676 -926 -1017 0
676 -935 -1008 0
676 -967 -1017 0
676 -976 -1008 0
677 -844 -895 0
677 -854 -885 0
677 -844 -936 0
677 -854 -926 0
677 -844 -977 0
677 -854 -967 0
677 -844 -1018 0
677 -854 -1008 0
677 -885 -936 0
677 -895 -926 0
677 -885 -977 0
677 -895 -967 0
677 -885 -1018 0
677 -895 -1008 0
677 -926 -977 0
677 -936 -967 0
677 -926 -1018 0
677 -936 -1008 0
677 -967 -1018 0
677 -977 -1008 0
678 -844 -896 0
678 -855 -885 0
678 -844 -937 0
678 -855 -926 0
678 -844 -978 0
678 -855 -967 0
678 -844 -1019 0
678 -855 -1008 0
678 -885 -937 0
678 -896 -926 0
678 -885 -978 0
678 -896 -967 0
678 -885 -1019 0
678 -896 -1008 0
678 -926 -978 0
678 -937 -967 0
678 -926 -1019 0
678 -937 -1008 0
678 -967 -1019 0
678 -978 -1008 0
679 -844 -897 0
679 -856 -885 0
679 -844 -938 0
679 -856 -926 0
679 -844 -979 0
679 -856 -967 0
679 -844 -1020 0
679 -856 -1008 0
679 -885 -938 0
679 -897 -926 0
679 -885 -979 0
679 -897 -967 0
679 -885 -1020 0
679 -897 -1008 0
679 -926 -979 0
679 -938 -967 0
679 -926 -1020 0
679 -938 -1008 0
679 -967 -1020 0
679 -979 -1008 0
680 -844 -898 0
680 -857 -885 0
680 -844 -939 0
680 -857 -926 0
680 -844 -980 0
680 -857 -967 0
680 -844 -1021 0
680 -857 -1008 0
680 -885 -939 0
680 -898 -926 0
680 -885 -980 0
680 -898 -967 0
680 -885 -1021 0
680 -898 -1008 0
680 -926 -980 0
680 -939 -967 0
680 -926 -1021 0
680 -939 -1008 0
680 -967 -1021 0
680 -980 -1008 0
681 -844 -899 0
681 -858 -885 0
681 -844 -940 0
681 -858 -926 0
681 -844 -981 0
681 -858 -967 0
681 -844 -1022 0
681 -858 -1008 0
681 -885 -940 0
681 -899 -926 0
681 -885 -981 0
681 -899 -967 0
681 -885 -1022 0
681 -899 -1008 0
681 -926 -981 0
681 -940 -967 0
681 -926 -1022 0
681 -940 -1008 0
681 -967 -1022 0
681 -981 -1008 0
682 -844 -900 0
682 -859 -885 0
682 -844 -941 0
682 -859 -926 0
682 -844 -982 0
682 -859 -967 0
682 -844 -1023 0
682 -859 -1008 0
682 -885 -941 0
682 -900 -926 0
682 -885 -982 0
682 -900 -967 0
682 -885 -1023 0
682 -900 -1008 0
682 -926 -982 0
682 -941 -967 0
682 -926 -1023 0
682 -941 -1008 0
682 -967 -1023 0
682 -982 -1008 0
683 -844 -901 0
683 -860 -885 0
683 -844 -942 0
683 -860 -926 0
683 -844 -983 0
683 -860 -967 0
683 -844 -1024 0
683 -860 -1008 0
683 -885 -942 0
683 -901 -926 0
683 -885 -983 0
683 -901 -967 0
683 -885 -1024 0
683 -901 -1008 0
683 -926 -983 0
683 -942 -967 0
683 -926 -1024 0
683 -942 -1008 0
683 -967 -1024 0
683 -983 -1008 0
684 -844 -902 0
684 -861 -885 0
684 -844 -943 0
684 -861 -926 0
684 -844 -984 0
684 -861 -967 0
684 -844 -1025 0
684 -861 -1008 0
684 -885 -943 0
684 -902 -926 0
684 -885 -984 0
684 -902 -967 0
684 -885 -1025 0
684 -902 -1008 0
684 -926 -984 0
684 -943 -967 0
684 -926 -1025 0
684 -943 -1008 0
684 -967 -1025 0
684 -984 -1008 0
685 -845 -887 0
685 -846 -886 0
685 -845 -928 0
685 -846 -927 0
685 -845 -969 0
685 -846 -968 0
685 -845 -1010 0
685 -846 -1009 0
685 -886 -928 0
685 -887 -927 0
685 -886 -969 0
685 -887 -968 0
685 -886 -1010 0
685 -887 -1009 0
685 -927 -969 0
685 -928 -968 0
685 -927 -1010 0
685 -928 -1009 0
685 -968 -1010 0
685 -969 -1009 0
686 -845 -888 0
686 -847 -886 0
686 -845 -929 0
686 -847 -927 0
686 -845 -970 0
686 -847 -968 0
686 -845 -1011 0
686 -847 -1009 0
686 -886 -929 0
686 -888 -927 0
686 -886 -970 0
686 -888 -968 0
686 -886 -1011 0
686 -888 -1009 0
686 -927 -970 0
686 -929 -968 0
686 -927 -1011 0
686 -929 -1009 0
686 -968 -1011 0
686 -970 -1009 0
687 -845 -889 0
687 -848 -886 0
687 -845 -930 0
687 -848 -927 0
687 -845 -971 0
687 -848 -968 0
687 -845 -1012 0
687 -848 -1009 0
687 -886 -930 0
687 -889 -927 0
687 -886 -971 0
687 -889 -968 0
687 -886 -1012 0
687 -889 -1009 0
687 -927 -971 0
687 -930 -968 0
687 -927 -1012 0
687 -930 -1009 0
687 -968 -1012 0
687 -971 -1009 0
688 -845 -890 0
688 -849 -886 0
688 -845 -931 0
688 -849 -927 0
688 -845 -972 0
688 -849 -968 0
688 -845 -1013 0
688 -849 -1009 0
688 -886 -931 0
688 -890 -927 0
688 -886 -972 0
688 -890 -968 0
688 -886 -1013 0
688 -890 -1009 0
688 -927 -972 0
688 -931 -968 0
688 -927 -1013 0
688 -931 -1009 0
688 -968 -1013 0
688 -972 -1009 0
689 -845 -891 0
689 -850 -886 0
689 -845 -932 0
689 -850 -927 0
689 -845 -973 0
689 -850 -968 0
689 -845 -1014 0
689 -850 -1009 0
689 -886 -932 0
689 -891 -927 0
689 -886 -973 0
689 -891 -968 0
689 -886 -1014 0
689 -891 -1009 0
689 -927 -973 0
689 -932 -968 0
689 -927 -1014 0
689 -932 -1009 0
689 -968 -1014 0
689 -973 -1009 0
690 -845 -892 0
690 -851 -886 0
690 -845 -933 0
690 -851 -927 0
690 -845 -974 0
690 -851 -968 0
690 -845 -1015 0
690 -851 -1009 0
690 -886 -933 0
690 -892 -927 0
690 -886 -974 0
690 -892 -968 0
690 -886 -1015 0
690 -892 -1009 0
690 -927 -974 0
690 -933 -968 0
690 -927 -1015 0
690 -933 -1009 0
690 -968 -1015 0
690 -974 -1009 0
691 -845 -893 0
691 -852 -886 0
691 -845 -934 0
691 -852 -927 0
691 -845 -975 0
691 -852 -968 0
691 -845 -1016 0
691 -852 -1009 0
691 -886 -934 0
691 -893 -927 0
691 -886 -975 0
691 -893 -968 0
691 -886 -1016 0
691 -893 -1009 0
691 -927 -975 0
691 -934 -968 0
691 -927 -1016 0
691 -934 -1009 0
691 -968 -1016 0
691 -975 -1009 0
692 -845 -894 0
692 -853 -886 0
692 -845 -935 0
692 -853 -927 0
692 -845 -976 0
692 -853 -968 0
692 -845 -1017 0
692 -853 -1009 0
692 -886 -935 0
692 -894 -927 0
692 -886 -976 0
692 -894 -968 0
692 -886 -1017 0
692 -894 -1009 0
692 -927 -976 0
692 -935 -968 0
692 -927 -1017 0
692 -935 -1009 0
692 -968 -1017 0
692 -976 -1009 0
693 -845 -895 0
693 -854 -886 0
693 -845 -936 0
693 -854 -927 0
693 -845 -977 0
693 -854 -968 0
693 -845 -1018 0
693 -854 -1009 0
693 -886 -936 0
693 -895 -927 0
693 -886 -977 0
693 -895 -968 0
693 -886 -1018 0
693 -895 -1009 0
693 -927 -977 0
693 -936 -968 0
693 -927 -1018 0
693 -936 -1009 0
693 -968 -1018 0
693 -977 -1009 0
694 -845 -896 0
694 -855 -886 0
694 -845 -937 0
694 -855 -927 0
694 -845 -978 0
694 -855 -968 0
694 -845 -1019 0
694 -855 -1009 0
694 -886 -937 0
694 -896 -927 0
694 -886 -978 0
694 -896 -968 0
694 -886 -1019 0
694 -896 -1009 0
694 -927 -978 0
694 -937 -968 0
694 -927 -1019 0
694 -937 -1009 0
694 -968 -1019 0
694 -978 -1009 0
695 -845 -897 0
695 -856 -886 0
695 -845 -938 0
695 -856 -927 0
695 -845 -979 0
695 -856 -968 0
695 -845 -1020 0
695 -856 -1009 0
695 -886 -938 0
695 -897 -927 0
695 -886 -979 0
695 -897 -968 0
695 -886 -1020 0
695 -897 -1009 0
695 -927 -979 0
695 -938 -968 0
695 -927 -1020 0
695 -938 -1009 0
695 -968 -1020 0
695 -979 -1009 0
696 -845 -898 0
696 -857 -886 0
696 -845 -939 0
696 -857 -927 0
696 -845 -980 0
696 -857 -968 0
696 -845 -1021 0
696 -857 -1009 0
696 -886 -939 0
696 -898 -927 0
696 -886 -980 0
696 -898 -968 0
696 -886 -1021 0
696 -898 -1009 0
696 -927 -980 0
696 -939 -968 0
696 -927 -1021 0
696 -939 -1009 0
696 -968 -1021 0
696 -980 -1009 0
697 -845 -899 0
697 -858 -886 0
697 -845 -940 0
697 -858 -927 0
697 -845 -981 0
697 -858 -968 0
697 -845 -1022 0
697 -858 -1009 0
697 -886 -940 0
697 -899 -927 0
697 -886 -981 0
697 -899 -968 0
697 -886 -1022 0
697 -899 -1009 0
697 -927 -981 0
697 -940 -968 0
697 -927 -1022 0
697 -940 -1009 0
697 -968 -1022 0
697 -981 -1009 0
698 -845 -900 0
698 -859 -886 0
698 -845 -941 0
698 -859 -927 0
698 -845 -982 0
698 -859 -968 0
698 -845 -1023 0
698 -859 -1009 0
698 -886 -941 0
698 -900 -927 0
698 -886 -982 0
698 -900 -968 0
698 -886 -1023 0
698 -900 -1009 0
698 -927 -982 0
698 -941 -968 0
698 -927 -1023 0
698 -941 -1009 0
698 -968 -1023 0
698 -982 -1009 0
699 -845 -901 0
699 -860 -886 0
699 -845 -942 0
699 -860 -927 0
699 -845 -983 0
699 -860 -968 0
699 -845 -1024 0
699 -860 -1009 0
699 -886 -942 0
699 -901 -927 0
699 -886 -983 0
699 -901 -968 0
699 -886 -1024 0
699 -901 -1009 0
699 -927 -983 0
699 -942 -968 0
699 -927 -1024 0
699 -942 -1009 0
699 -968 -1024 0
699 -983 -1009 0
700 -845 -902 0
700 -861 -886 0
700 -845 -943 0
700 -861 -927 0
700 -845 -984 0
700 -861 -968 0
700 -845 -1025 0
700 -861 -1009 0
700 -886 -943 0
700 -902 -927 0
700 -886 -984 0
700 -902 -968 0
700 -886 -1025 0
700 -902 -1009 0
700 -927 -984 0
700 -943 -968 0
700 -927 -1025 0
700 -943 -1009 0
700 -968 -1025 0
700 -984 -1009 0
701 -846 -888 0
701 -847 -887 0
701 -846 -929 0
701 -847 -928 0
701 -846 -970 0
701 -847 -969 0
701 -846 -1011 0
701 -847 -1010 0
701 -887 -929 0
701 -888 -928 0
701 -887 -970 0
701 -888 -969 0
701 -887 -1011 0
701 -888 -1010 0
701 -928 -970 0
701 -929 -969 0
701 -928 -1011 0
701 -929 -1010 0
701 -969 -1011 0
701 -970 -1010 0
702 -846 -889 0
702 -848 -887 0
702 -846 -930 0
702 -848 -928 0
702 -846 -971 0
702 -848 -969 0
702 -846 -1012 0
702 -848 -1010 0
702 -887 -930 0
702 -889 -928 0
702 -887 -971 0
702 -889 -969 0
702 -887 -1012 0
702 -889 -1010 0
702 -928 -971 0
702 -930 -969 0
702 -928 -1012 0
702 -930 -1010 0
702 -969 -1012 0
702 -971 -1010 0
703 -846 -890 0
703 -849 -887 0
703 -846 -931 0
703 -849 -928 0
703 -846 -972 0
703 -849 -969 0
703 -846 -1013 0
703 -849 -1010 0
703 -887 -931 0
703 -890 -928 0
703 -887 -972 0
703 -890 -969 0
703 -887 -1013 0
703 -890 -1010 0
703 -928 -972 0
703 -931 -969 0
703 -928 -1013 0
703 -931 -1010 0
703 -969 -1013 0
703 -972 -1010 0
704 -846 -891 0
704 -850 -887 0
704 -846 -932 0
704 -850 -928 0
704 -846 -973 0
704 -850 -969 0
704 -846 -1014 0
704 -850 -1010 0
704 -887 -932 0
704 -891 -928 0
704 -887 -973 0
704 -891 -969 0
704 -887 -1014 0
704 -891 -1010 0
704 -928 -973 0
704 -932 -969 0
704 -928 -1014 0
704 -932 -1010 0
704 -969 -1014 0
704 -973 -1010 0
705 -846 -892 0
705 -851 -887 0
705 -846 -933 0
705 -851 -928 0
705 -846 -974 0
705 -851 -969 0
705 -846 -1015 0
705 -851 -1010 0
705 -887 -933 0
705 -892 -928 0
705 -887 -974 0
705 -892 -969 0
705 -887 -1015 0
705 -892 -1010 0
705 -928 -974 0
705 -933 -969 0
705 -928 -1015 0
705 -933 -1010 0
705 -969 -1015 0
705 -974 -1010 0
706 -846 -893 0
706 -852 -887 0
706 -846 -934 0
706 -852 -928 0
706 -846 -975 0
706 -852 -969 0
706 -846 -1016 0
706 -852 -1010 0
706 -887 -934 0
706 -893 -928 0
706 -887 -975 0
706 -893 -969 0
706 -887 -1016 0
706 -893 -1010 0
706 -928 -975 0
706 -934 -969 0
706 -928 -1016 0
706 -934 -1010 0
706 -969 -1016 0
706 -975 -1010 0
707 -846 -894 0
707 -853 -887 0
707 -846 -935 0
707 -853 -928 0
707 -846 -976 0
707 -853 -969 0
707 -846 -1017 0
707 -853 -1010 0
707 -887 -935 0
707 -894 -928 0
707 -887 -976 0
707 -894 -969 0
707 -887 -1017 0
707 -894 -1010 0
707 -928 -976 0
707 -935 -969 0
707 -928 -1017 0
707 -935 -1010 0
707 -969 -1017 0
707 -976 -1010 0
708 -846 -895 0
708 -854 -887 0
708 -846 -936 0
708 -854 -928 0
708 -846 -977 0
708 -854 -969 0
708 -846 -1018 0
708 -854 -1010 0
708 -887 -936 0
708 -895 -928 0
708 -887 -977 0
708 -895 -969 0
708 -887 -1018 0
708 -895 -1010 0
708 -928 -977 0
708 -936 -969 0
708 -928 -1018 0
708 -936 -1010 0
708 -969 -1018 0
708 -977 -1010 0
709 -846 -896 0
709 -855 -887 0
709 -846 -937 0
709 -855 -928 0
709 -846 -978 0
709 -855 -969 0
709 -846 -1019 0
709 -855 -1010 0
709 -887 -937 0
709 -896 -928 0
709 -887 -978 0
709 -896 -969 0
709 -887 -1019 0
709 -896 -1010 0
709 -928 -978 0
709 -937 -969 0
709 -928 -1019 0
709 -937 -1010 0
709 -969 -1019 0
709 -978 -1010 0
710 -846 -897 0
710 -856 -887 0
710 -846 -938 0
710 -856 -928 0
710 -846 -979 0
710 -856 -969 0
710 -846 -1020 0
710 -856 -1010 0
710 -887 -938 0
710 -897 -928 0
710 -887 -979 0
710 -897 -969 0
710 -887 -1020 0
710 -897 -1010 0
710 -928 -979 0
710 -938 -969 0
710 -928 -1020 0
710 -938 -1010 0
710 -969 -1020 0
710 -979 -1010 0
711 -846 -898 0
711 -857 -887 0
711 -846 -939 0
711 -857 -928 0
711 -846 -980 0
711 -857 -969 0
711 -846 -1021 0
711 -857 -1010 0
711 -887 -939 0
711 -898 -928 0
711 -887 -980 0
711 -898 -969 0
711 -887 -1021 0
711 -898 -1010 0
711 -928 -980 0
711 -939 -969 0
711 -928 -1021 0
711 -939 -1010 0
711 -969 -1021 0
711 -980 -1010 0
712 -846 -899 0
712 -858 -887 0
712 -846 -940 0
712 -858 -928 0
712 -846 -981 0
712 -858 -969 0
712 -846 -1022 0
712 -858 -1010 0
712 -887 -940 0
712 -899 -928 0
712 -887 -981 0
712 -899 -969 0
712 -887 -1022 0
712 -899 -1010 0
712 -928 -981 0
712 -940 -969 0
712 -928 -1022 0
712 -940 -1010 0
712 -969 -1022 0
712 -981 -1010 0
713 -846 -900 0
713 -859 -887 0
713 -846 -941 0
713 -859 -928 0
713 -846 -982 0
713 -859 -969 0
713 -846 -1023 0
713 -859 -1010 0
713 -887 -941 0
713 -900 -928 0
713 -887 -982 0
713 -900 -969 0
713 -887 -1023 0
713 -900 -1010 0
713 -928 -982 0
713 -941 -969 0
713 -928 -1023 0
713 -941 -1010 0
713 -969 -1023 0
713 -982 -1010 0
714 -846 -901 0
714 -860 -887 0
714 -846 -942 0
714 -860 -928 0
714 -846 -983 0
714 -860 -969 0
714 -846 -1024 0
714 -860 -1010 0
714 -887 -942 0
714 -901 -928 0
714 -887 -983 0
714 -901 -969 0
714 -887 -1024 0
714 -901 -1010 0
714 -928 -983 0
714 -942 -969 0
714 -928 -1024 0
714 -942 -1010 0
714 -969 -1024 0
714 -983 -1010 0
715 -846 -902 0
715 -861 -887 0
715 -846 -943 0
715 -861 -928 0
715 -846 -984 0
715 -861 -969 0
715 -846 -1025 0
715 -861 -1010 0
715 -887 -943 0
715 -902 -928 0
715 -887 -984 0
715 -902 -969 0
715 -887 -1025 0
715 -902 -1010 0
715 -928 -984 0
715 -943 -969 0
715 -928 -1025 0
715 -943 -1010 0
715 -969 -1025 0
715 -984 -1010 0
716 -847 -889 0
716 -848 -888 0
716 -847 -930 0
716 -848 -929 0
716 -847 -971 0
716 -848 -970 0
716 -847 -1012 0
716 -848 -1011 0
716 -888 -930 0
716 -889 -929 0
716 -888 -971 0
716 -889 -970 0
716 -888 -1012 0
716 -889 -1011 0
716 -929 -971 0
716 -930 -970 0
716 -929 -1012 0
716 -930 -1011 0
716 -970 -1012 0
716 -971 -1011 0
717 -847 -890 0
717 -849 -888 0
717 -847 -931 0
717 -849 -929 0
717 -847 -972 0
717 -849 -970 0
717 -847 -1013 0
717 -849 -1011 0
717 -888 -931 0
717 -890 -929 0
717 -888 -972 0
717 -890 -970 0
717 -888 -1013 0
717 -890 -1011 0
717 -929 -972 0
717 -931 -970 0
717 -929 -1013 0
717 -931 -1011 0
717 -970 -1013 0
717 -972 -1011 0
718 -847 -891 0
718 -850 -888 0
718 -847 -932 0
718 -850 -929 0
718 -847 -973 0
718 -850 -970 0
718 -847 -1014 0
718 -850 -1011 0
718 -888 -932 0
718 -891 -929 0
718 -888 -973 0
718 -891 -970 0
718 -888 -1014 0
718 -891 -1011 0
718 -929 -973 0
718 -932 -970 0
718 -929 -1014 0
718 -932 -1011 0
718 -970 -1014 0
718 -973 -1011 0
719 -847 -892 0
719 -851 -888 0
719 -847 -933 0
719 -851 -929 0
719 -847 -974 0
719 -851 -970 0
719 -847 -1015 0
719 -851 -1011 0
719 -888 -933 0
719 -892 -929 0
719 -888 -974 0
719 -892 -970 0
719 -888 -1015 0
719 -892 -1011 0
719 -929 -974 0
719 -933 -970 0
719 -929 -1015 0
719 -933 -1011 0
719 -970 -1015 0
719 -974 -1011 0
720 -847 -893 0
720 -852 -888 0
720 -847 -934 0
720 -852 -929 0
720 -847 -975 0
720 -852 -970 0
720 -847 -1016 0
720 -852 -1011 0
720 -888 -934 0
720 -893 -929 0
720 -888 -975 0
720 -893 -970 0
720 -888 -1016 0
720 -893 -1011 0
720 -929 -975 0
720 -934 -970 0
720 -929 -1016 0
720 -934 -1011 0
720 -970 -1016 0
720 -975 -1011 0
721 -847 -894 0
721 -853 -888 0
721 -847 -935 0
721 -853 -929 0
721 -847 -976 0
721 -853 -970 0
721 -847 -1017 0
721 -853 -1011 0
721 -888 -935 0
721 -894 -929 0
721 -888 -976 0
721 -894 -970 0
721 -888 -1017 0
721 -894 -1011 0
721 -929 -976 0
721 -935 -970 0
721 -929 -1017 0
721 -935 -1011 0
721 -970 -1017 0
721 -976 -1011 0
722 -847 -895 0
722 -854 -888 0
722 -847 -936 0
722 -854 -929 0
722 -847 -977 0
722 -854 -970 0
722 -847 -1018 0
722 -854 -1011 0
722 -888 -936 0
722 -895 -929 0
722 -888 -977 0
722 -895 -970 0
722 -888 -1018 0
722 -895 -1011 0
722 -929 -977 0
722 -936 -970 0
722 -929 -1018 0
722 -936 -1011 0
722 -970 -1018 0
722 -977 -1011 0
723 -847 -896 0
723 -855 -888 0
723 -847 -937 0
723 -855 -929 0
723 -847 -978 0
723 -855 -970 0
723 -847 -1019 0
723 -855 -1011 0
723 -888 -937 0
723 -896 -929 0
723 -888 -978 0
723 -896 -970 0
723 -888 -1019 0
723 -896 -1011 0
723 -929 -978 0
723 -937 -970 0
723 -929 -1019 0
723 -937 -1011 0
723 -970 -1019 0
723 -978 -1011 0
724 -847 -897 0
724 -856 -888 0
724 -847 -938 0
724 -856 -929 0
724 -847 -979 0
724 -856 -970 0
724 -847 -1020 0
724 -856 -1011 0
724 -888 -938 0
724 -897 -929 0
724 -888 -979 0
724 -897 -970 0
724 -888 -1020 0
724 -897 -1011 0
724 -929 -979 0
724 -938 -970 0
724 -929 -1020 0
724 -938 -1011 0
724 -970 -1020 0
724 -979 -1011 0
725 -847 -898 0
725 -857 -888 0
725 -847 -939 0
725 -857 -929 0
725 -847 -980 0
725 -857 -970 0
725 -847 -1021 0
725 -857 -1011 0
725 -888 -939 0
725 -898 -929 0
725 -888 -980 0
725 -898 -970 0
725 -888 -1021 0
725 -898 -1011 0
725 -929 -980 0
725 -939 -970 0
725 -929 -1021 0
725 -939 -1011 0
725 -970 -1021 0
725 -980 -1011 0
726 -847 -899 0
726 -858 -888 0
726 -847 -940 0
726 -858 -929 0
726 -847 -981 0
726 -858 -970 0
726 -847 -1022 0
726 -858 -1011 0
726 -888 -940 0
726 -899 -929 0
726 -888 -981 0
726 -899 -970 0
726 -888 -1022 0
726 -899 -1011 0
726 -929 -981 0
726 -940 -970 0
726 -929 -1022 0
726 -940 -1011 0
726 -970 -1022 0
726 -981 -1011 0
727 -847 -900 0
727 -859 -888 0
727 -847 -941 0
727 -859 -929 0
727 -847 -982 0
727 -859 -970 0
727 -847 -1023 0
727 -859 -1011 0
727 -888 -941 0
727 -900 -929 0
727 -888 -982 0
727 -900 -970 0
727 -888 -1023 0
727 -900 -1011 0
727 -929 -982 0
727 -941 -970 0
727 -929 -1023 0
727 -941 -1011 0
727 -970 -1023 0
727 -982 -1011 0
728 -847 -901 0
728 -860 -888 0
728 -847 -942 0
728 -860 -929 0
728 -847 -983 0
728 -860 -970 0
728 -847 -1024 0
728 -860 -1011 0
728 -888 -942 0
728 -901 -929 0
728 -888 -983 0
728 -901 -970 0
728 -888 -1024 0
728 -901 -1011 0
728 -929 -983 0
728 -942 -970 0
728 -929 -1024 0
728 -942 -1011 0
728 -970 -1024 0
728 -983 -1011 0
729 -847 -902 0
729 -861 -888 0
729 -847 -943 0
729 -861 -929 0
729 -847 -984 0
729 -861 -970 0
729 -847 -1025 0
729 -861 -1011 0
729 -888 -943 0
729 -902 -929 0
729 -888 -984 0
729 -902 -970 0
729 -888 -1025 0
729 -902 -1011 0
729 -929 -984 0
729 -943 -970 0
729 -929 -1025 0
729 -943 -1011 0
729 -970 -1025 0
729 -984 -1011 0
730 -848 -890 0
730 -849 -889 0
730 -848 -931 0
730 -849 -930 0
730 -848 -972 0
730 -849 -971 0
730 -848 -1013 0
730 -849 -1012 0
730 -889 -931 0
730 -890 -930 0
730 -889 -972 0
730 -890 -971 0
730 -889 -1013 0
730 -890 -1012 0
730 -930 -972 0
730 -931 -971 0
730 -930 -1013 0
730 -931 -1012 0
730 -971 -1013 0
730 -972 -1012 0
731 -848 -891 0
731 -850 -889 0
731 -848 -932 0
731 -850 -930 0
731 -848 -973 0
731 -850 -971 0
731 -848 -1014 0
731 -850 -1012 0
731 -889 -932 0
731 -891 -930 0
731 -889 -973 0
731 -891 -971 0
731 -889 -1014 0
731 -891 -1012 0
731 -930 -973 0
731 -932 -971 0
731 -930 -1014 0
731 -932 -1012 0
731 -971 -1014 0
731 -973 -1012 0
732 -848 -892 0
732 -851 -889 0
732 -848 -933 0
732 -851 -930 0
732 -848 -974 0
732 -851 -971 0
732 -848 -1015 0
732 -851 -1012 0
732 -889 -933 0
732 -892 -930 0
732 -889 -974 0
732 -892 -971 0
732 -889 -1015 0
732 -892 -1012 0
732 -930 -974 0
732 -933 -971 0
732 -930 -1015 0
732 -933 -1012 0
732 -971 -1015 0
732 -974 -1012 0
733 -848 -893 0
733 -852 -889 0
733 -848 -934 0
733 -852 -930 0
733 -848 -975 0
733 -852 -971 0
733 -848 -1016 0
733 -852 -1012 0
733 -889 -934 0
733 -893 -930 0
733 -889 -975 0
733 -893 -971 0
733 -889 -1016 0
733 -893 -1012 0
733 -930 -975 0
733 -934 -971 0
733 -930 -1016 0
733 -934 -1012 0
733 -971 -1016 0
733 -975 -1012 0
734 -848 -894 0
734 -853 -889 0
734 -848 -935 0
734 -853 -930 0
734 -848 -976 0
734 -853 -971 0
734 -848 -1017 0
734 -853 -1012 0
734 -889 -935 0
734 -894 -930 0
734 -889 -976 0
734 -894 -971 0
734 -889 -1017 0
734 -894 -1012 0
734 -930 -976 0
734 -935 -971 0
734 -930 -1017 0
734 -935 -1012 0
734 -971 -1017 0
734 -976 -1012 0
735 -848 -895 0
735 -854 -889 0
735 -848 -936 0
735 -854 -930 0
735 -848 -977 0
735 -854 -971 0
735 -848 -1018 0
735 -854 -1012 0
735 -889 -936 0
735 -895 -930 0
735 -889 -977 0
735 -895 -971 0
735 -889 -1018 0
735 -895 -1012 0
735 -930 -977 0
735 -936 -971 0
735 -930 -1018 0
735 -936 -1012 0
735 -971 -1018 0
735 -977 -1012 0
736 -848 -896 0
736 -855 -889 0
736 -848 -937 0
736 -855 -930 0
736 -848 -978 0
736 -855 -971 0
736 -848 -1019 0
736 -855 -1012 0
736 -889 -937 0
736 -896 -930 0
736 -889 -978 0
736 -896 -971 0
736 -889 -1019 0
736 -896 -1012 0
736 -930 -978 0
736 -937 -971 0
736 -930 -1019 0
736 -937 -1012 0
736 -971 -1019 0
736 -978 -1012 0
737 -848 -897 0
737 -856 -889 0
737 -848 -938 0
737 -856 -930 0
737 -848 -979 0
737 -856 -971 0
737 -848 -1020 0
737 -856 -1012 0
737 -889 -938 0
737 -897 -930 0
737 -889 -979 0
737 -897 -971 0
737 -889 -1020 0
737 -897 -1012 0
737 -930 -979 0
737 -938 -971 0
737 -930 -1020 0
737 -938 -1012 0
737 -971 -1020 0
737 -979 -1012 0
738 -848 -898 0
738 -857 -889 0
738 -848 -939 0
738 -857 -930 0
738 -848 -980 0
738 -857 -971 0
738 -848 -1021 0
738 -857 -1012 0
738 -889 -939 0
738 -898 -930 0
738 -889 -980 0
738 -898 -971 0
738 -889 -1021 0
738 -898 -1012 0
738 -930 -980 0
738 -939 -971 0
738 -930 -1021 0
738 -939 -1012 0
738 -971 -1021 0
738 -980 -1012 0
739 -848 -899 0
739 -858 -889 0
739 -848 -940 0
739 -858 -930 0
739 -848 -981 0
739 -858 -971 0
739 -848 -1022 0
739 -858 -1012 0
739 -889 -940 0
739 -899 -930 0
739 -889 -981 0
739 -899 -971 0
739 -889 -1022 0
739 -899 -1012 0
739 -930 -981 0
739 -940 -971 0
739 -930 -1022 0
739 -940 -1012 0
739 -971 -1022 0
739 -981 -1012 0
740 -848 -900 0
740 -859 -889 0
740 -848 -941 0
740 -859 -930 0
740 -848 -982 0
740 -859 -971 0
740 -848 -1023 0
740 -859 -1012 0
740 -889 -941 0
740 -900 -930 0
740 -889 -982 0
740 -900 -971 0
740 -889 -1023 0
740 -900 -1012 0
740 -930 -982 0
740 -941 -971 0
740 -930 -1023 0
740 -941 -1012 0
740 -971 -1023 0
740 -982 -1012 0
741 -848 -901 0
741 -860 -889 0
741 -848 -942 0
741 -860 -930 0
741 -848 -983 0
741 -860 -971 0
741 -848 -1024 0
741 -860 -1012 0
741 -889 -942 0
741 -901 -930 0
741 -889 -983 0
741 -901 -971 0
741 -889 -1024 0
741 -901 -1012 0
741 -930 -983 0
741 -942 -971 0
741 -930 -1024 0
741 -942 -1012 0
741 -971 -1024 0
741 -983 -1012 0
742 -848 -902 0
742 -861 -889 0
742 -848 -943 0
742 -861 -930 0
742 -848 -984 0
742 -861 -971 0
742 -848 -1025 0
742 -861 -1012 0
742 -889 -943 0
742 -902 -930 0
742 -889 -984 0
742 -902 -971 0
742 -889 -1025 0
742 -902 -1012 0
742 -930 -984 0
742 -943 -971 0
742 -930 -1025 0
742 -943 -1012 0
742 -971 -1025 0
742 -984 -1012 0
743 -849 -891 0
743 -850 -890 0
743 -849 -932 0
743 -850 -931 0
743 -849 -973 0
743 -850 -972 0
743 -849 -1014 0
743 -850 -1013 0
743 -890 -932 0
743 -891 -931 0
743 -890 -973 0
743 -891 -972 0
743 -890 -1014 0
743 -891 -1013 0
743 -931 -973 0
743 -932 -972 0
743 -931 -1014 0
743 -932 -1013 0
743 -972 -1014 0
743 -973 -1013 0
744 -849 -892 0
744 -851 -890 0
744 -849 -933 0
744 -851 -931 0
744 -849 -974 0
744 -851 -972 0
744 -849 -1015 0
744 -851 -1013 0
744 -890 -933 0
744 -892 -931 0
744 -890 -974 0
744 -892 -972 0
744 -890 -1015 0
744 -892 -1013 0
744 -931 -974 0
744 -933 -972 0
744 -931 -1015 0
744 -933 -1013 0
744 -972 -1015 0
744 -974 -1013 0
745 -849 -893 0
745 -852 -890 0
745 -849 -934 0
745 -852 -931 0
745 -849 -975 0
745 -852 -972 0
745 -849 -1016 0
745 -852 -1013 0
745 -890 -934 0
745 -893 -931 0
745 -890 -975 0
745 -893 -972 0
745 -890 -1016 0
745 -893 -1013 0
745 -931 -975 0
745 -934 -972 0
745 -931 -1016 0
745 -934 -1013 0
745 -972 -1016 0
745 -975 -1013 0
746 -849 -894 0
746 -853 -890 0
746 -849 -935 0
746 -853 -931 0
746 -849 -976 0
746 -853 -972 0
746 -849 -1017 0
746 -853 -1013 0
746 -890 -935 0
746 -894 -931 0
746 -890 -976 0
746 -894 -972 0
746 -890 -1017 0
746 -894 -1013 0
746 -931 -976 0
746 -935 -972 0
746 -931 -1017 0
746 -935 -1013 0
746 -972 -1017 0
746 -976 -1013 0
747 -849 -895 0
747 -854 -890 0
747 -849 -936 0
747 -854 -931 0
747 -849 -977 0
747 -854 -972 0
747 -849 -1018 0
747 -854 -1013 0
747 -890 -936 0
747 -895 -931 0
747 -890 -977 0
747 -895 -972 0
747 -890 -1018 0
747 -895 -1013 0
747 -931 -977 0
747 -936 -972 0
747 -931 -1018 0
747 -936 -1013 0
747 -972 -1018 0
747 -977 -1013 0
748 -849 -896 0
748 -855 -890 0
748 -849 -937 0
748 -855 -931 0
748 -849 -978 0
748 -855 -972 0
748 -849 -1019 0
748 -855 -1013 0
748 -890 -937 0
748 -896 -931 0
748 -890 -978 0
748 -896 -972 0
748 -890 -1019 0
748 -896 -1013 0
748 -931 -978 0
748 -937 -972 0
748 -931 -1019 0
748 -937 -1013 0
748 -972 -1019 0
748 -978 -1013 0
749 -849 -897 0
749 -856 -890 0
749 -849 -938 0
749 -856 -931 0
749 -849 -979 0
749 -856 -972 0
749 -849 -1020 0
749 -856 -1013 0
749 -890 -938 0
749 -897 -931 0
749 -890 -979 0
749 -897 -972 0
749 -890 -1020 0
749 -897 -1013 0
749 -931 -979 0
749 -938 -972 0
749 -931 -1020 0
749 -938 -1013 0
749 -972 -1020 0
749 -979 -1013 0
750 -849 -898 0
750 -857 -890 0
750 -849 -939 0
750 -857 -931 0
750 -849 -980 0
750 -857 -972 0
750 -849 -1021 0
750 -857 -1013 0
750 -890 -939 0
750 -898 -931 0
750 -890 -980 0
750 -898 -972 0
750 -890 -1021 0
750 -898 -1013 0
750 -931 -980 0
750 -939 -972 0
750 -931 -1021 0
750 -939 -1013 0
750 -972 -1021 0
750 -980 -1013 0
751 -849 -899 0
751 -858 -890 0
751 -849 -940 0
751 -858 -931 0
751 -849 -981 0
751 -858 -972 0
751 -849 -1022 0
751 -858 -1013 0
751 -890 -940 0
751 -899 -931 0
751 -890 -981 0
751 -899 -972 0
751 -890 -1022 0
751 -899 -1013 0
751 -931 -981 0
751 -940 -972 0
751 -931 -1022 0
751 -940 -1013 0
751 -972 -1022 0
751 -981 -1013 0
752 -849 -900 0
752 -859 -890 0
752 -849 -941 0
752 -859 -931 0
752 -849 -982 0
752 -859 -972 0
752 -849 -1023 0
752 -859 -1013 0
752 -890 -941 0
752 -900 -931 0
752 -890 -982 0
752 -900 -972 0
752 -890 -1023 0
752 -900 -1013 0
752 -931 -982 0
752 -941 -972 0
752 -931 -1023 0
752 -941 -1013 0
752 -972 -1023 0
752 -982 -1013 0
753 -849 -901 0
753 -860 -890 0
753 -849 -942 0
753 -860 -931 0
753 -849 -983 0
753 -860 -972 0
753 -849 -1024 0
753 -860 -1013 0
753 -890 -942 0
753 -901 -931 0
753 -890 -983 0
753 -901 -972 0
753 -890 -1024 0
753 -901 -1013 0
753 -931 -983 0
753 -942 -972 0
753 -931 -1024 0
753 -942 -1013 0
753 -972 -1024 0
753 -983 -1013 0
754 -849 -902 0
754 -861 -890 0
754 -849 -943 0
754 -861 -931 0
754 -849 -984 0
754 -861 -972 0
754 -849 -1025 0
754 -861 -1013 0
754 -890 -943 0
754 -902 -931 0
754 -890 -984 0
754 -902 -972 0
754 -890 -1025 0
754 -902 -1013 0
754 -931 -984 0
754 -943 -972 0
754 -931 -1025 0
754 -943 -1013 0
754 -972 -1025 0
754 -984 -1013 0
755 -850 -892 0
755 -851 -891 0
755 -850 -933 0
755 -851 -932 0
755 -850 -974 0
755 -851 -973 0
755 -850 -1015 0
755 -851 -1014 0
755 -891 -933 0
755 -892 -932 0
755 -891 -974 0
755 -892 -973 0
755 -891 -1015 0
755 -892 -1014 0
755 -932 -974 0
755 -933 -973 0
755 -932 -1015 0
755 -933 -1014 0
755 -973 -1015 0
755 -974 -1014 0
756 -850 -893 0
756 -852 -891 0
756 -850 -934 0
756 -852 -932 0
756 -850 -975 0
756 -852 -973 0
756 -850 -1016 0
756 -852 -1014 0
756 -891 -934 0
756 -893 -932 0
756 -891 -975 0
756 -893 -973 0
756 -891 -1016 0
756 -893 -1014 0
756 -932 -975 0
756 -934 -973 0
756 -932 -1016 0
756 -934 -1014 0
756 -973 -1016 0
756 -975 -1014 0
757 -850 -894 0
757 -853 -891 0
757 -850 -935 0
757 -853 -932 0
757 -850 -976 0
757 -853 -973 0
757 -850 -1017 0
757 -853 -1014 0
757 -891 -935 0
757 -894 -932 0
757 -891 -976 0
757 -894 -973 0
757 -891 -1017 0
757 -894 -1014 0
757 -932 -976 0
757 -935 -973 0
757 -932 -1017 0
757 -935 -1014 0
757 -973 -1017 0
757 -976 -1014 0
758 -850 -895 0
758 -854 -891 0
758 -850 -936 0
758 -854 -932 0
758 -850 -977 0
758 -854 -973 0
758 -850 -1018 0
758 -854 -1014 0
758 -891 -936 0
758 -895 -932 0
758 -891 -977 0
758 -895 -973 0
758 -891 -1018 0
758 -895 -1014 0
758 -932 -977 0
758 -936 -973 0
758 -932 -1018 0
758 -936 -1014 0
758 -973 -1018 0
758 -977 -1014 0
759 -850 -896 0
759 -855 -891 0
759 -850 -937 0
759 -855 -932 0
759 -850 -978 0
759 -855 -973 0
759 -850 -1019 0
759 -855 -1014 0
759 -891 -937 0
759 -896 -932 0
759 -891 -978 0
759 -896 -973 0
759 -891 -1019 0
759 -896 -1014 0
759 -932 -978 0
759 -937 -973 0
759 -932 -1019 0
759 -937 -1014 0
759 -973 -1019 0
759 -978 -1014 0
760 -850 -897 0
760 -856 -891 0
760 -850 -938 0
760 -856 -932 0
760 -850 -979 0
760 -856 -973 0
760 -850 -1020 0
760 -856 -1014 0
760 -891 -938 0
760 -897 -932 0
760 -891 -979 0
760 -897 -973 0
760 -891 -1020 0
760 -897 -1014 0
760 -932 -979 0
760 -938 -973 0
760 -932 -1020 0
760 -938 -1014 0
760 -973 -1020 0
760 -979 -1014 0
761 -850 -898 0
761 -857 -891 0
761 -850 -939 0
761 -857 -932 0
761 -850 -980 0
761 -857 -973 0
761 -850 -1021 0
761 -857 -1014 0
761 -891 -939 0
761 -898 -932 0
761 -891 -980 0
761 -898 -973 0
761 -891 -1021 0
761 -898 -1014 0
761 -932 -980 0
761 -939 -973 0
761 -932 -1021 0
761 -939 -1014 0
761 -973 -1021 0
761 -980 -1014 0
762 -850 -899 0
762 -858 -891 0
762 -850 -940 0
762 -858 -932 0
762 -850 -981 0
762 -858 -973 0
762 -850 -1022 0
762 -858 -1014 0
762 -891 -940 0
762 -899 -932 0
762 -891 -981 0
762 -899 -973 0
762 -891 -1022 0
762 -899 -1014 0
762 -932 -981 0
762 -940 -973 0
762 -932 -1022 0
762 -940 -1014 0
762 -973 -1022 0
762 -981 -1014 0
763 -850 -900 0
763 -859 -891 0
763 -850 -941 0
763 -859 -932 0
763 -850 -982 0
763 -859 -973 0
763 -850 -1023 0
763 -859 -1014 0
763 -891 -941 0
763 -900 -932 0
763 -891 -982 0
763 -900 -973 0
763 -891 -1023 0
763 -900 -1014 0
763 -932 -982 0
763 -941 -973 0
763 -932 -1023 0
763 -941 -1014 0
763 -973 -1023 0
763 -982 -1014 0
764 -850 -901 0
764 -860 -891 0
764 -850 -942 0
764 -860 -932 0
764 -850 -983 0
764 -860 -973 0
764 -850 -1024 0
764 -860 -1014 0
764 -891 -942 0
764 -901 -932 0
764 -891 -983 0
764 -901 -973 0
764 -891 -1024 0
764 -901 -1014 0
764 -932 -983 0
764 -942 -973 0
764 -932 -1024 0
764 -942 -1014 0
764 -973 -1024 0
764 -983 -1014 0
765 -850 -902 0
765 -861 -891 0
765 -850 -943 0
765 -861 -932 0
765 -850 -984 0
765 -861 -973 0
765 -850 -1025 0
765 -861 -1014 0
765 -891 -943 0
765 -902 -932 0
765 -891 -984 0
765 -902 -973 0
765 -891 -1025 0
765 -902 -1014 0
765 -932 -984 0
765 -943 -973 0
765 -932 -1025 0
765 -943 -1014 0
765 -973 -1025 0
765 -984 -1014 0
766 -851 -893 0
766 -852 -892 0
766 -851 -934 0
766 -852 -933 0
766 -851 -975 0
766 -852 -974 0
766 -851 -1016 0
766 -852 -1015 0
766 -892 -934 0
766 -893 -933 0
766 -892 -975 0
766 -893 -974 0
766 -892 -1016 0
766 -893 -1015 0
766 -933 -975 0
766 -934 -974 0
766 -933 -1016 0
766 -934 -1015 0
766 -974 -1016 0
766 -975 -1015 0
767 -851 -894 0
767 -853 -892 0
767 -851 -935 0
767 -853 -933 0
767 -851 -976 0
767 -853 -974 0
767 -851 -1017 0
767 -853 -1015 0
767 -892 -935 0
767 -894 -933 0
767 -892 -976 0
767 -894 -974 0
767 -892 -1017 0
767 -894 -1015 0
767 -933 -976 0
767 -935 -974 0
767 -933 -1017 0
767 -935 -1015 0
767 -974 -1017 0
767 -976 -1015 0
768 -851 -895 0
768 -854 -892 0
768 -851 -936 0
768 -854 -933 0
768 -851 -977 0
768 -854 -974 0
768 -851 -1018 0
768 -854 -1015 0
768 -892 -936 0
768 -895 -933 0
768 -892 -977 0
768 -895 -974 0
768 -892 -1018 0
768 -895 -1015 0
768 -933 -977 0
768 -936 -974 0
768 -933 -1018 0
768 -936 -1015 0
768 -974 -1018 0
768 -977 -1015 0
769 -851 -896 0
769 -855 -892 0
769 -851 -937 0
769 -855 -933 0
769 -851 -978 0
769 -855 -974 0
769 -851 -1019 0
769 -855 -1015 0
769 -892 -937 0
769 -896 -933 0
769 -892 -978 0
769 -896 -974 0
769 -892 -1019 0
769 -896 -1015 0
769 -933 -978 0
769 -937 -974 0
769 -933 -1019 0
769 -937 -1015 0
769 -974 -1019 0
769 -978 -1015 0
770 -851 -897 0
770 -856 -892 0
770 -851 -938 0
770 -856 -933 0
770 -851 -979 0
770 -856 -974 0
770 -851 -1020 0
770 -856 -1015 0
770 -892 -938 0
770 -897 -933 0
770 -892 -979 0
770 -897 -974 0
770 -892 -1020 0
770 -897 -1015 0
770 -933 -979 0
770 -938 -974 0
770 -933 -1020 0
770 -938 -1015 0
770 -974 -1020 0
770 -979 -1015 0
771 -851 -898 0
771 -857 -892 0
771 -851 -939 0
771 -857 -933 0
771 -851 -980 0
771 -857 -974 0
771 -851 -1021 0
771 -857 -1015 0
771 -892 -939 0
771 -898 -933 0
771 -892 -980 0
771 -898 -974 0
771 -892 -1021 0
771 -898 -1015 0
771 -933 -980 0
771 -939 -974 0
771 -933 -1021 0
771 -939 -1015 0
771 -974 -1021 0
771 -980 -1015 0
772 -851 -899 0
772 -858 -892 0
772 -851 -940 0
772 -858 -933 0
772 -851 -981 0
772 -858 -974 0
772 -851 -1022 0
772 -858 -1015 0
772 -892 -940 0
772 -899 -933 0
772 -892 -981 0
772 -899 -974 0
772 -892 -1022 0
772 -899 -1015 0
772 -933 -981 0
772 -940 -974 0
772 -933 -1022 0
772 -940 -1015 0
772 -974 -1022 0
772 -981 -1015 0
773 -851 -900 0
773 -859 -892 0
773 -851 -941 0
773 -859 -933 0
773 -851 -982 0
773 -859 -974 0
773 -851 -1023 0
773 -859 -1015 0
773 -892 -941 0
773 -900 -933 0
773 -892 -982 0
773 -900 -974 0
773 -892 -1023 0
773 -900 -1015 0
773 -933 -982 0
773 -941 -974 0
773 -933 -1023 0
773 -941 -1015 0
773 -974 -1023 0
773 -982 -1015 0
774 -851 -901 0
774 -860 -892 0
774 -851 -942 0
774 -860 -933 0
774 -851 -983 0
774 -860 -974 0
774 -851 -1024 0
774 -860 -1015 0
774 -892 -942 0
774 -901 -933 0
774 -892 -983 0
774 -901 -974 0
774 -892 -1024 0
774 -901 -1015 0
774 -933 -983 0
774 -942 -974 0
774 -933 -1024 0
774 -942 -1015 0
774 -974 -1024 0
774 -983 -1015 0
775 -851 -902 0
775 -861 -892 0
775 -851 -943 0
775 -861 -933 0
775 -851 -984 0
775 -861 -974 0
775 -851 -1025 0
775 -861 -1015 0
775 -892 -943 0
775 -902 -933 0
775 -892 -984 0
775 -902 -974 0
775 -892 -1025 0
775 -902 -1015 0
775 -933 -984 0
775 -943 -974 0
775 -933 -1025 0
775 -943 -1015 0
775 -974 -1025 0
775 -984 -1015 0
776 -852 -894 0
776 -853 -893 0
776 -852 -935 0
776 -853 -934 0
776 -852 -976 0
776 -853 -975 0
776 -852 -1017 0
776 -853 -1016 0
776 -893 -935 0
776 -894 -934 0
776 -893 -976 0
776 -894 -975 0
776 -893 -1017 0
776 -894 -1016 0
776 -934 -976 0
776 -935 -975 0
776 -934 -1017 0
776 -935 -1016 0
776 -975 -1017 0
776 -976 -1016 0
777 -852 -895 0
777 -854 -893 0
777 -852 -936 0
777 -854 -934 0
777 -852 -977 0
777 -854 -975 0
777 -852 -1018 0
777 -854 -1016 0
777 -893 -936 0
777 -895 -934 0
777 -893 -977 0
777 -895 -975 0
777 -893 -1018 0
777 -895 -1016 0
777 -934 -977 0
777 -936 -975 0
777 -934 -1018 0
777 -936 -1016 0
777 -975 -1018 0
777 -977 -1016 0
778 -852 -896 0
778 -855 -893 0
778 -852 -937 0
778 -855 -934 0
778 -852 -978 0
778 -855 -975 0
778 -852 -1019 0
778 -855 -1016 0
778 -893 -937 0
778 -896 -934 0
778 -893 -978 0
778 -896 -975 0
778 -893 -1019 0
778 -896 -1016 0
778 -934 -978 0
778 -937 -975 0
778 -934 -1019 0
778 -937 -1016 0
778 -975 -1019 0
778 -978 -1016 0
779 -852 -897 0
779 -856 -893 0
779 -852 -938 0
779 -856 -934 0
779 -852 -979 0
779 -856 -975 0
779 -852 -1020 0
779 -856 -1016 0
779 -893 -938 0
779 -897 -934 0
779 -893 -979 0
779 -897 -975 0
779 -893 -1020 0
779 -897 -1016 0
779 -934 -979 0
779 -938 -975 0
779 -934 -1020 0
779 -938 -1016 0
779 -975 -1020 0
779 -979 -1016 0
780 -852 -898 0
780 -857 -893 0
780 -852 -939 0
780 -857 -934 0
780 -852 -980 0
780 -857 -975 0
780 -852 -1021 0
780 -857 -1016 0
780 -893 -939 0
780 -898 -934 0
780 -893 -980 0
780 -898 -975 0
780 -893 -1021 0
780 -898 -1016 0
780 -934 -980 0
780 -939 -975 0
780 -934 -1021 0
780 -939 -1016 0
780 -975 -1021 0
780 -980 -1016 0
781 -852 -899 0
781 -858 -893 0
781 -852 -940 0
781 -858 -934 0
781 -852 -981 0
781 -858 -975 0
781 -852 -1022 0
781 -858 -1016 0
781 -893 -940 0
781 -899 -934 0
781 -893 -981 0
781 -899 -975 0
781 -893 -1022 0
781 -899 -1016 0
781 -934 -981 0
781 -940 -975 0
781 -934 -1022 0
781 -940 -1016 0
781 -975 -1022 0
781 -981 -1016 0
782 -852 -900 0
782 -859 -893 0
782 -852 -941 0
782 -859 -934 0
782 -852 -982 0
782 -859 -975 0
782 -852 -1023 0
782 -859 -1016 0
782 -893 -941 0
782 -900 -934 0
782 -893 -982 0
782 -900 -975 0
782 -893 -1023 0
782 -900 -1016 0
782 -934 -982 0
782 -941 -975 0
782 -934 -1023 0
782 -941 -1016 0
782 -975 -1023 0
782 -982 -1016 0
783 -852 -901 0
783 -860 -893 0
783 -852 -942 0
783 -860 -934 0
783 -852 -983 0
783 -860 -975 0
783 -852 -1024 0
783 -860 -1016 0
783 -893 -942 0
783 -901 -934 0
783 -893 -983 0
783 -901 -975 0
783 -893 -1024 0
783 -901 -1016 0
783 -934 -983 0
783 -942 -975 0
783 -934 -1024 0
783 -942 -1016 0
783 -975 -1024 0
783 -983 -1016 0
784 -852 -902 0
784 -861 -893 0
784 -852 -943 0
784 -861 -934 0
784 -852 -984 0
784 -861 -975 0
784 -852 -1025 0
784 -861 -1016 0
784 -893 -943 0
784 -902 -934 0
784 -893 -984 0
784 -902 -975 0
784 -893 -1025 0
784 -902 -1016 0
784 -934 -984 0
784 -943 -975 0
784 -934 -1025 0
784 -943 -1016 0
784 -975 -1025 0
784 -984 -1016 0
785 -853 -895 0
785 -854 -894 0
785 -853 -936 0
785 -854 -935 0
785 -853 -977 0
785 -854 -976 0
785 -853 -1018 0
785 -854 -1017 0
785 -894 -936 0
785 -895 -935 0
785 -894 -977 0
785 -895 -976 0
785 -894 -1018 0
785 -895 -1017 0
785 -935 -977 0
785 -936 -976 0
785 -935 -1018 0
785 -936 -1017 0
785 -976 -1018 0
785 -977 -1017 0
786 -853 -896 0
786 -855 -894 0
786 -853 -937 0
786 -855 -935 0
786 -853 -978 0
786 -855 -976 0
786 -853 -1019 0
786 -855 -1017 0
786 -894 -937 0
786 -896 -935 0
786 -894 -978 0
786 -896 -976 0
786 -894 -1019 0
786 -896 -1017 0
786 -935 -978 0
786 -937 -976 0
786 -935 -1019 0
786 -937 -1017 0
786 -976 -1019 0
786 -978 -1017 0
787 -853 -897 0
787 -856 -894 0
787 -853 -938 0
787 -856 -935 0
787 -853 -979 0
787 -856 -976 0
787 -853 -1020 0
787 -856 -1017 0
787 -894 -938 0
787 -897 -935 0
787 -894 -979 0
787 -897 -976 0
787 -894 -1020 0
787 -897 -1017 0
787 -935 -979 0
787 -938 -976 0
787 -935 -1020 0
787 -938 -1017 0
787 -976 -1020 0
787 -979 -1017 0
788 -853 -898 0
788 -857 -894 0
788 -853 -939 0
788 -857 -935 0
788 -853 -980 0
788 -857 -976 0
788 -853 -1021 0
788 -857 -1017 0
788 -894 -939 0
788 -898 -935 0
788 -894 -980 0
788 -898 -976 0
788 -894 -1021 0
788 -898 -1017 0
788 -935 -980 0
788 -939 -976 0
788 -935 -1021 0
788 -939 -1017 0
788 -976 -1021 0
788 -980 -1017 0
789 -853 -899 0
789 -858 -894 0
789 -853 -940 0
789 -858 -935 0
789 -853 -981 0
789 -858 -976 0
789 -853 -1022 0
789 -858 -1017 0
789 -894 -940 0
789 -899 -935 0
789 -894 -981 0
789 -899 -976 0
789 -894 -1022 0
789 -899 -1017 0
789 -935 -981 0
789 -940 -976 0
789 -935 -1022 0
789 -940 -1017 0
789 -976 -1022 0
789 -981 -1017 0
790 -853 -900 0
790 -859 -894 0
790 -853 -941 0
790 -859 -935 0
790 -853 -982 0
790 -859 -976 0
790 -853 -1023 0
790 -859 -1017 0
790 -894 -941 0
790 -900 -935 0
790 -894 -982 0
790 -900 -976 0
790 -894 -1023 0
790 -900 -1017 0
790 -935 -982 0
790 -941 -976 0
790 -935 -1023 0
790 -941 -1017 0
790 -976 -1023 0
790 -982 -1017 0
791 -853 -901 0
791 -860 -894 0
791 -853 -942 0
791 -860 -935 0
791 -853 -983 0
791 -860 -976 0
791 -853 -1024 0
791 -860 -1017 0
791 -894 -942 0
791 -901 -935 0
791 -894 -983 0
791 -901 -976 0
791 -894 -1024 0
791 -901 -1017 0
791 -935 -983 0
791 -942 -976 0
791 -935 -1024 0
791 -942 -1017 0
791 -976 -1024 0
791 -983 -1017 0
792 -853 -902 0
792 -861 -894 0
792 -853 -943 0
792 -861 -935 0
792 -853 -984 0
792 -861 -976 0
792 -853 -1025 0
792 -861 -1017 0
792 -894 -943 0
792 -902 -935 0
792 -894 -984 0
792 -902 -976 0
792 -894 -1025 0
792 -902 -1017 0
792 -935 -984 0
792 -943 -976 0
792 -935 -1025 0
792 -943 -1017 0
792 -976 -1025 0
792 -984 -1017 0
793 -854 -896 0
793 -855 -895 0
793 -854 -937 0
793 -855 -936 0
793 -854 -978 0
793 -855 -977 0
793 -854 -1019 0
793 -855 -1018 0
793 -895 -937 0
793 -896 -936 0
793 -895 -978 0
793 -896 -977 0
793 -895 -1019 0
793 -896 -1018 0
793 -936 -978 0
793 -937 -977 0
793 -936 -1019 0
793 -937 -1018 0
793 -977 -1019 0
793 -978 -1018 0
794 -854 -897 0
794 -856 -895 0
794 -854 -938 0
794 -856 -936 0
794 -854 -979 0
794 -856 -977 0
794 -854 -1020 0
794 -856 -1018 0
794 -895 -938 0
794 -897 -936 0
794 -895 -979 0
794 -897 -977 0
794 -895 -1020 0
794 -897 -1018 0
794 -936 -979 0
794 -938 -977 0
794 -936 -1020 0
794 -938 -1018 0
794 -977 -1020 0
794 -979 -1018 0
795 -854 -898 0
795 -857 -895 0
795 -854 -939 0
795 -857 -936 0
795 -854 -980 0
795 -857 -977 0
795 -854 -1021 0
795 -857 -1018 0
795 -895 -939 0
795 -898 -936 0
795 -895 -980 0
795 -898 -977 0
795 -895 -1021 0
795 -898 -1018 0
795 -936 -980 0
795 -939 -977 0
795 -936 -1021 0
795 -939 -1018 0
795 -977 -1021 0
795 -980 -1018 0
796 -854 -899 0
796 -858 -895 0
796 -854 -940 0
796 -858 -936 0
796 -854 -981 0
796 -858 -977 0
796 -854 -1022 0
796 -858 -1018 0
796 -895 -940 0
796 -899 -936 0
796 -895 -981 0
796 -899 -977 0
796 -895 -1022 0
796 -899 -1018 0
796 -936 -981 0
796 -940 -977 0
796 -936 -1022 0
796 -940 -1018 0
796 -977 -1022 0
796 -981 -1018 0
797 -854 -900 0
797 -859 -895 0
797 -854 -941 0
797 -859 -936 0
797 -854 -982 0
797 -859 -977 0
797 -854 -1023 0
797 -859 -1018 0
797 -895 -941 0
797 -900 -936 0
797 -895 -982 0
797 -900 -977 0
797 -895 -1023 0
797 -900 -1018 0
797 -936 -982 0
797 -941 -977 0
797 -936 -1023 0
797 -941 -1018 0
797 -977 -1023 0
797 -982 -1018 0
798 -854 -901 0
798 -860 -895 0
798 -854 -942 0
798 -860 -936 0
798 -854 -983 0
798 -860 -977 0
798 -854 -1024 0
798 -860 -1018 0
798 -895 -942 0
798 -901 -936 0
798 -895 -983 0
798 -901 -977 0
798 -895 -1024 0
798 -901 -1018 0
798 -936 -983 0
798 -942 -977 0
798 -936 -1024 0
798 -942 -1018 0
798 -977 -1024 0
798 -983 -1018 0
799 -854 -902 0
799 -861 -895 0
799 -854 -943 0
799 -861 -936 0
799 -854 -984 0
799 -861 -977 0
799 -854 -1025 0
799 -861 -1018 0
799 -895 -943 0
799 -902 -936 0
799 -895 -984 0
799 -902 -977 0
799 -895 -1025 0
799 -902 -1018 0
799 -936 -984 0
799 -943 -977 0
799 -936 -1025 0
799 -943 -1018 0
799 -977 -1025 0
799 -984 -1018 0
800 -855 -897 0
800 -856 -896 0
800 -855 -938 0
800 -856 -937 0
800 -855 -979 0
800 -856 -978 0
800 -855 -1020 0
800 -856 -1019 0
800 -896 -938 0
800 -897 -937 0
800 -896 -979 0
800 -897 -978 0
800 -896 -1020 0
800 -897 -1019 0
800 -937 -979 0
800 -938 -978 0
800 -937 -1020 0
800 -938 -1019 0
800 -978 -1020 0
800 -979 -1019 0
801 -855 -898 0
801 -857 -896 0
801 -855 -939 0
801 -857 -937 0
801 -855 -980 0
801 -857 -978 0
801 -855 -1021 0
801 -857 -1019 0
801 -896 -939 0
801 -898 -937 0
801 -896 -980 0
801 -898 -978 0
801 -896 -1021 0
801 -898 -1019 0
801 -937 -980 0
801 -939 -978 0
801 -937 -1021 0
801 -939 -1019 0
801 -978 -1021 0
801 -980 -1019 0
802 -855 -899 0
802 -858 -896 0
802 -855 -940 0
802 -858 -937 0
802 -855 -981 0
802 -858 -978 0
802 -855 -1022 0
802 -858 -1019 0
802 -896 -940 0
802 -899 -937 0
802 -896 -981 0
802 -899 -978 0
802 -896 -1022 0
802 -899 -1019 0
802 -937 -981 0
802 -940 -978 0
802 -937 -1022 0
802 -940 -1019 0
802 -978 -1022 0
802 -981 -1019 0
803 -855 -900 0
803 -859 -896 0
803 -855 -941 0
803 -859 -937 0
803 -855 -982 0
803 -859 -978 0
803 -855 -1023 0
803 -859 -1019 0
803 -896 -941 0
803 -900 -937 0
803 -896 -982 0
803 -900 -978 0
803 -896 -1023 0
803 -900 -1019 0
803 -937 -982 0
803 -941 -978 0
803 -937 -1023 0
803 -941 -1019 0
803 -978 -1023 0
803 -982 -1019 0
804 -855 -901 0
804 -860 -896 0
804 -855 -942 0
804 -860 -937 0
804 -855 -983 0
804 -860 -978 0
804 -855 -1024 0
804 -860 -1019 0
804 -896 -942 0
804 -901 -937 0
804 -896 -983 0
804 -901 -978 0
804 -896 -1024 0
804 -901 -1019 0
804 -937 -983 0
804 -942 -978 0
804 -937 -1024 0
804 -942 -1019 0
804 -978 -1024 0
804 -983 -1019 0
805 -855 -902 0
805 -861 -896 0
805 -855 -943 0
805 -861 -937 0
805 -855 -984 0
805 -861 -978 0
805 -855 -1025 0
805 -861 -1019 0
805 -896 -943 0
805 -902 -937 0
805 -896 -984 0
805 -902 -978 0
805 -896 -1025 0
805 -902 -1019 0
805 -937 -984 0
805 -943 -978 0
805 -937 -1025 0
805 -943 -1019 0
805 -978 -1025 0
805 -984 -1019 0
806 -856 -898 0
806 -857 -897 0
806 -856 -939 0
806 -857 -938 0
806 -856 -980 0
806 -857 -979 0
806 -856 -1021 0
806 -857 -1020 0
806 -897 -939 0
806 -898 -938 0
806 -897 -980 0
806 -898 -979 0
806 -897 -1021 0
806 -898 -1020 0
806 -938 -980 0
806 -939 -979 0
806 -938 -1021 0
806 -939 -1020 0
806 -979 -1021 0
806 -980 -1020 0
807 -856 -899 0
807 -858 -897 0
807 -856 -940 0
807 -858 -938 0
807 -856 -981 0
807 -858 -979 0
807 -856 -1022 0
807 -858 -1020 0
807 -897 -940 0
807 -899 -938 0
807 -897 -981 0
807 -899 -979 0
807 -897 -1022 0
807 -899 -1020 0
807 -938 -981 0
807 -940 -979 0
807 -938 -1022 0
807 -940 -1020 0
807 -979 -1022 0
807 -981 -1020 0
808 -856 -900 0
808 -859 -897 0
808 -856 -941 0
808 -859 -938 0
808 -856 -982 0
808 -859 -979 0
808 -856 -1023 0
808 -859 -1020 0
808 -897 -941 0
808 -900 -938 0
808 -897 -982 0
808 -900 -979 0
808 -897 -1023 0
808 -900 -1020 0
808 -938 -982 0
808 -941 -979 0
808 -938 -1023 0
808 -941 -1020 0
808 -979 -1023 0
808 -982 -1020 0
809 -856 -901 0
809 -860 -897 0
809 -856 -942 0
809 -860 -938 0
809 -856 -983 0
809 -860 -979 0
809 -856 -1024 0
809 -860 -1020 0
809 -897 -942 0
809 -901 -938 0
809 -897 -983 0
809 -901 -979 0
809 -897 -1024 0
809 -901 -1020 0
809 -938 -983 0
809 -942 -979 0
809 -938 -1024 0
809 -942 -1020 0
809 -979 -1024 0
809 -983 -1020 0
810 -856 -902 0
810 -861 -897 0
810 -856 -943 0
810 -861 -938 0
810 -856 -984 0
810 -861 -979 0
810 -856 -1025 0
810 -861 -1020 0
810 -897 -943 0
810 -902 -938 0
810 -897 -984 0
810 -902 -979 0
810 -897 -1025 0
810 -902 -1020 0
810 -938 -984 0
810 -943 -979 0
810 -938 -1025 0
810 -943 -1020 0
810 -979 -1025 0
810 -984 -1020 0
811 -857 -899 0
811 -858 -898 0
811 -857 -940 0
811 -858 -939 0
811 -857 -981 0
811 -858 -980 0
811 -857 -1022 0
811 -858 -1021 0
811 -898 -940 0
811 -899 -939 0
811 -898 -981 0
811 -899 -980 0
811 -898 -1022 0
811 -899 -1021 0
811 -939 -981 0
811 -940 -980 0
811 -939 -1022 0
811 -940 -1021 0
811 -980 -1022 0
811 -981 -1021 0
812 -857 -900 0
812 -859 -898 0
812 -857 -941 0
812 -859 -939 0
812 -857 -982 0
812 -859 -980 0
812 -857 -1023 0
812 -859 -1021 0
812 -898 -941 0
812 -900 -939 0
812 -898 -982 0
812 -900 -980 0
812 -898 -1023 0
812 -900 -1021 0
812 -939 -982 0
812 -941 -980 0
812 -939 -1023 0
812 -941 -1021 0
812 -980 -1023 0
812 -982 -1021 0
813 -857 -901 0
813 -860 -898 0
813 -857 -942 0
813 -860 -939 0
813 -857 -983 0
813 -860 -980 0
813 -857 -1024 0
813 -860 -1021 0
813 -898 -942 0
813 -901 -939 0
813 -898 -983 0
813 -901 -980 0
813 -898 -1024 0
813 -901 -1021 0
813 -939 -983 0
813 -942 -980 0
813 -939 -1024 0
813 -942 -1021 0
813 -980 -1024 0
813 -983 -1021 0
814 -857 -902 0
814 -861 -898 0
814 -857 -943 0
814 -861 -939 0
814 -857 -984 0
814 -861 -980 0
814 -857 -1025 0
814 -861 -1021 0
814 -898 -943 0
814 -902 -939 0
814 -898 -984 0
814 -902 -980 0
814 -898 -1025 0
814 -902 -1021 0
814 -939 -984 0
814 -943 -980 0
814 -939 -1025 0
814 -943 -1021 0
814 -980 -1025 0
814 -984 -1021 0
815 -858 -900 0
815 -859 -899 0
815 -858 -941 0
815 -859 -940 0
815 -858 -982 0
815 -859 -981 0
815 -858 -1023 0
815 -859 -1022 0
815 -899 -941 0
815 -900 -940 0
815 -899 -982 0
815 -900 -981 0
815 -899 -1023 0
815 -900 -1022 0
815 -940 -982 0
815 -941 -981 0
815 -940 -1023 0
815 -941 -1022 0
815 -981 -1023 0
815 -982 -1022 0
816 -858 -901 0
816 -860 -899 0
816 -858 -942 0
816 -860 -940 0
816 -858 -983 0
816 -860 -981 0
816 -858 -1024 0
816 -860 -1022 0
816 -899 -942 0
816 -901 -940 0
816 -899 -983 0
816 -901 -981 0
816 -899 -1024 0
816 -901 -1022 0
816 -940 -983 0
816 -942 -981 0
816 -940 -1024 0
816 -942 -1022 0
816 -981 -1024 0
816 -983 -1022 0
817 -858 -902 0
817 -861 -899 0
817 -858 -943 0
817 -861 -940 0
817 -858 -984 0
817 -861 -981 0
817 -858 -1025 0
817 -861 -1022 0
817 -899 -943 0
817 -902 -940 0
817 -899 -984 0
817 -902 -981 0
817 -899 -1025 0
817 -902 -1022 0
817 -940 -984 0
817 -943 -981 0
817 -940 -1025 0
817 -943 -1022 0
817 -981 -1025 0
817 -984 -1022 0
818 -859 -901 0
818 -860 -900 0
818 -859 -942 0
818 -860 -941 0
818 -859 -983 0
818 -860 -982 0
818 -859 -1024 0
818 -860 -1023 0
818 -900 -942 0
818 -901 -941 0
818 -900 -983 0
818 -901 -982 0
818 -900 -1024 0
818 -901 -1023 0
818 -941 -983 0
818 -942 -982 0
818 -941 -1024 0
818 -942 -1023 0
818 -982 -1024 0
818 -983 -1023 0
819 -859 -902 0
819 -861 -900 0
819 -859 -943 0
819 -861 -941 0
819 -859 -984 0
819 -861 -982 0
819 -859 -1025 0
819 -861 -1023 0
819 -900 -943 0
819 -902 -941 0
819 -900 -984 0
819 -902 -982 0
819 -900 -1025 0
819 -902 -1023 0
819 -941 -984 0
819 -943 -982 0
819 -941 -1025 0
819 -943 -1023 0
819 -982 -1025 0
819 -984 -1023 0
820 -860 -902 0
820 -861 -901 0
820 -860 -943 0
820 -861 -942 0
820 -860 -984 0
820 -861 -983 0
820 -860 -1025 0
820 -861 -1024 0
820 -901 -943 0
820 -902 -942 0
820 -901 -984 0
820 -902 -983 0
820 -901 -1025 0
820 -902 -1024 0
820 -942 -984 0
820 -943 -983 0
820 -942 -1025 0
820 -943 -1024 0
820 -983 -1025 0
820 -984 -1024 0
1026 1027 1028 1029 0
1030 1031 1032 1033 0
1034 1035 1036 1037 0
1038 1039 1040 1041 0
1042 1043 1044 1045 0
1046 1047 1048 1049 0
1050 1051 1052 1053 0
1054 1055 1056 1057 0
1058 1059 1060 1061 0
1062 1063 1064 1065 0
1066 1067 1068 1069 0
1070 1071 1072 1073 0
1074 1075 1076 1077 0
1078 1079 1080 1081 0
1082 1083 1084 1085 0
1086 1087 1088 1089 0
1090 1091 1092 1093 0
1094 1095 1096 1097 0
1098 1099 1100 1101 0
1102 1103 1104 1105 0
1106 1107 1108 1109 0
1110 1111 1112 1113 0
1114 1115 1116 1117 0
1118 1119 1120 1121 0
1122 1123 1124 1125 0
1126 1127 1128 1129 0
1130 1131 1132 1133 0
1134 1135 1136 1137 0
1138 1139 1140 1141 0
1142 1143 1144 1145 0
1146 1147 1148 1149 0
1150 1151 1152 1153 0
1154 1155 1156 1157 0
1158 1159 1160 1161 0
1162 1163 1164 1165 0
1166 1167 1168 1169 0
1170 1171 1172 1173 0
1174 1175 1176 1177 0
1178 1179 1180 1181 0
1182 1183 1184 1185 0
1186 1187 1188 1189 0
-1026 -1027 0
-1026 -1028 0
-1026 -1029 0
-1027 -1028 0
-1027 -1029 0
-1028 -1029 0
-1030 -1031 0
-1030 -1032 0
-1030 -1033 0
-1031 -1032 0
-1031 -1033 0
-1032 -1033 0
-1034 -1035 0
-1034 -1036 0
-1034 -1037 0
-1035 -1036 0
-1035 -1037 0
-1036 -1037 0
-1038 -1039 0
-1038 -1040 0
-1038 -1041 0
-1039 -1040 0
-1039 -1041 0
-1040 -1041 0
-1042 -1043 0
-1042 -1044 0
-1042 -1045 0
-1043 -1044 0
-1043 -1045 0
-1044 -1045 0
-1046 -1047 0
-1046 -1048 0
-1046 -1049 0
-1047 -1048 0
-1047 -1049 0
-1048 -1049 0
-1050 -1051 0
-1050 -1052 0
-1050 -1053 0
-1051 -1052 0
-1051 -1053 0
-1052 -1053 0
-1054 -1055 0
-1054 -1056 0
-1054 -1057 0
-1055 -1056 0
-1055 -1057 0
-1056 -1057 0
-1058 -1059 0
-1058 -1060 0
-1058 -1061 0
-1059 -1060 0
-1059 -1061 0
-1060 -1061 0
-1062 -1063 0
-1062 -1064 0
-1062 -1065 0
-1063 -1064 0
-1063 -1065 0
-1064 -1065 0
-1066 -1067 0
-1066 -1068 0
-1066 -1069 0
-1067 -1068 0
-1067 -1069 0
-1068 -1069 0
-1070 -1071 0
-1070 -1072 0
-1070 -1073 0
-1071 -1072 0
-1071 -1073 0
-1072 -1073 0
-1074 -1075 0
-1074 -1076 0
-1074 -1077 0
-1075 -1076 0
-1075 -1077 0
-1076 -1077 0
-1078 -1079 0
-1078 -1080 0
-1078 -1081 0
-1079 -1080 0
-1079 -1081 0
-1080 -1081 0
-1082 -1083 0
-1082 -1084 0
-1082 -1085 0
-1083 -1084 0
-1083 -1085 0
-1084 -1085 0
-1086 -1087 0
-1086 -1088 0
-1086 -1089 0
-1087 -1088 0
-1087 -1089 0
-1088 -1089 0
-1090 -1091 0
-1090 -1092 0
-1090 -1093 0
-1091 -1092 0
-1091 -1093 0
-1092 -1093 0
-1094 -1095 0
-1094 -1096 0
-1094 -1097 0
-1095 -1096 0
-1095 -1097 0
-1096 -1097 0
-1098 -1099 0
-1098 -1100 0
-1098 -1101 0
-1099 -1100 0
-1099 -1101 0
-1100 -1101 0
-1102 -1103 0
-1102 -1104 0
-1102 -1105 0
-1103 -1104 0
-1103 -1105 0
-1104 -1105 0
-1106 -1107 0
-1106 -1108 0
-1106 -1109 0
-1107 -1108 0
-1107 -1109 0
-1108 -1109 0
-1110 -1111 0
-1110 -1112 0
-1110 -1113 0
-1111 -1112 0
-1111 -1113 0
-1112 -1113 0
-1114 -1115 0
-1114 -1116 0
-1114 -1117 0
-1115 -1116 0
-1115 -1117 0
-1116 -1117 0
-1118 -1119 0
-1118 -1120 0
-1118 -1121 0
-1119 -1120 0
-1119 -1121 0
-1120 -1121 0
-1122 -1123 0
-1122 -1124 0
-1122 -1125 0
-1123 -1124 0
-1123 -1125 0
-1124 -1125 0
-1126 -1127 0
-1126 -1128 0
-1126 -1129 0
-1127 -1128 0
-1127 -1129 0
-1128 -1129 0
-1130 -1131 0
-1130 -1132 0
-1130 -1133 0
-1131 -1132 0
-1131 -1133 0
-1132 -1133 0
-1134 -1135 0
-1134 -1136 0
-1134 -1137 0
-1135 -1136 0
-1135 -1137 0
-1136 -1137 0
-1138 -1139 0
-1138 -1140 0
-1138 -1141 0
-1139 -1140 0
-1139 -1141 0
-1140 -1141 0
-1142 -1143 0
-1142 -1144 0
-1142 -1145 0
-1143 -1144 0
-1143 -1145 0
-1144 -1145 0
-1146 -1147 0
-1146 -1148 0
-1146 -1149 0
-1147 -1148 0
-1147 -1149 0
-1148 -1149 0
-1150 -1151 0
-1150 -1152 0
-1150 -1153 0
-1151 -1152 0
-1151 -1153 0
-1152 -1153 0
-1154 -1155 0
-1154 -1156 0
-1154 -1157 0
-1155 -1156 0
-1155 -1157 0
-1156 -1157 0
-1158 -1159 0
-1158 -1160 0
-1158 -1161 0
-1159 -1160 0
-1159 -1161 0
-1160 -1161 0
-1162 -1163 0
-1162 -1164 0
-1162 -1165 0
-1163 -1164 0
-1163 -1165 0
-1164 -1165 0
-1166 -1167 0
-1166 -1168 0
-1166 -1169 0
-1167 -1168 0
-1167 -1169 0
-1168 -1169 0
-1170 -1171 0
-1170 -1172 0
-1170 -1173 0
-1171 -1172 0
-1171 -1173 0
-1172 -1173 0
-1174 -1175 0
-1174 -1176 0
-1174 -1177 0
-1175 -1176 0
-1175 -1177 0
-1176 -1177 0
-1178 -1179 0
-1178 -1180 0
-1178 -1181 0
-1179 -1180 0
-1179 -1181 0
-1180 -1181 0
-1182 -1183 0
-1182 -1184 0
-1182 -1185 0
-1183 -1184 0
-1183 -1185 0
-1184 -1185 0
-1186 -1187 0
-1186 -1188 0
-1186 -1189 0
-1187 -1188 0
-1187 -1189 0
-1188 -1189 0
-1 -1026 -1030 0
-1 -1027 -1031 0
-1 -1028 -1032 0
-1 -1029 -1033 0
-2 -1026 -1034 0
-2 -1027 -1035 0
-2 -1028 -1036 0
-2 -1029 -1037 0
-3 -1026 -1038 0
-3 -1027 -1039 0
-3 -1028 -1040 0
-3 -1029 -1041 0
-4 -1026 -1042 0
-4 -1027 -1043 0
-4 -1028 -1044 0
-4 -1029 -1045 0
-5 -1026 -1046 0
-5 -1027 -1047 0
-5 -1028 -1048 0
-5 -1029 -1049 0
-6 -1026 -1050 0
-6 -1027 -1051 0
-6 -1028 -1052 0
-6 -1029 -1053 0
-7 -1026 -1054 0
-7 -1027 -1055 0
-7 -1028 -1056 0
-7 -1029 -1057 0
-8 -1026 -1058 0
-8 -1027 -1059 0
-8 -1028 -1060 0
-8 -1029 -1061 0
-9 -1026 -1062 0
-9 -1027 -1063 0
-9 -1028 -1064 0
-9 -1029 -1065 0
-10 -1026 -1066 0
-10 -1027 -1067 0
-10 -1028 -1068 0
-10 -1029 -1069 0
-11 -1026 -1070 0
-11 -1027 -1071 0
-11 -1028 -1072 0
-11 -1029 -1073 0
-12 -1026 -1074 0
-12 -1027 -1075 0
-12 -1028 -1076 0
-12 -1029 -1077 0
-13 -1026 -1078 0
-13 -1027 -1079 0
-13 -1028 -1080 0
-13 -1029 -1081 0
-14 -1026 -1082 0
-14 -1027 -1083 0
-14 -1028 -1084 0
-14 -1029 -1085 0
-15 -1026 -1086 0
-15 -1027 -1087 0
-15 -1028 -1088 0
-15 -1029 -1089 0
-16 -1026 -1090 0
-16 -1027 -1091 0
-16 -1028 -1092 0
-16 -1029 -1093 0
-17 -1026 -1094 0
-17 -1027 -1095 0
-17 -1028 -1096 0
-17 -1029 -1097 0
-18 -1026 -1098 0
-18 -1027 -1099 0
-18 -1028 -1100 0
-18 -1029 -1101 0
-19 -1026 -1102 0
-19 -1027 -1103 0
-19 -1028 -1104 0
-19 -1029 -1105 0
-20 -1026 -1106 0
-20 -1027 -1107 0
-20 -1028 -1108 0
-20 -1029 -1109 0
-21 -1026 -1110 0
-21 -1027 -1111 0
-21 -1028 -1112 0
-21 -1029 -1113 0
-22 -1026 -1114 0
-22 -1027 -1115 0
-22 -1028 -1116 0
-22 -1029 -1117 0
-23 -1026 -1118 0
-23 -1027 -1119 0
-23 -1028 -1120 0
-23 -1029 -1121 0
-24 -1026 -1122 0
-24 -1027 -1123 0
-24 -1028 -1124 0
-24 -1029 -1125 0
-25 -1026 -1126 0
-25 -1027 -1127 0
-25 -1028 -1128 0
-25 -1029 -1129 0
-26 -1026 -1130 0
-26 -1027 -1131 0
-26 -1028 -1132 0
-26 -1029 -1133 0
-27 -1026 -1134 0
-27 -1027 -1135 0
-27 -1028 -1136 0
-27 -1029 -1137 0
-28 -1026 -1138 0
-28 -1027 -1139 0
-28 -1028 -1140 0
-28 -1029 -1141 0
-29 -1026 -1142 0
-29 -1027 -1143 0
-29 -1028 -1144 0
-29 -1029 -1145 0
-30 -1026 -1146 0
-30 -1027 -1147 0
-30 -1028 -1148 0
-30 -1029 -1149 0
-31 -1026 -1150 0
-31 -1027 -1151 0
-31 -1028 -1152 0
-31 -1029 -1153 0
-32 -1026 -1154 0
-32 -1027 -1155 0
-32 -1028 -1156 0
-32 -1029 -1157 0
-33 -1026 -1158 0
-33 -1027 -1159 0
-33 -1028 -1160 0
-33 -1029 -1161 0
-34 -1026 -1162 0
-34 -1027 -1163 0
-34 -1028 -1164 0
-34 -1029 -1165 0
-35 -1026 -1166 0
-35 -1027 -1167 0
-35 -1028 -1168 0
-35 -1029 -1169 0
-36 -1026 -1170 0
-36 -1027 -1171 0
-36 -1028 -1172 0
-36 -1029 -1173 0
-37 -1026 -1174 0
-37 -1027 -1175 0
-37 -1028 -1176 0
-37 -1029 -1177 0
-38 -1026 -1178 0
-38 -1027 -1179 0
-38 -1028 -1180 0
-38 -1029 -1181 0
-39 -1026 -1182 0
-39 -1027 -1183 0
-39 -1028 -1184 0
-39 -1029 -1185 0
-40 -1026 -1186 0
-40 -1027 -1187 0
-40 -1028 -1188 0
-40 -1029 -1189 0
-41 -1030 -1034 0
-41 -1031 -1035 0
-41 -1032 -1036 0
-41 -1033 -1037 0
-42 -1030 -1038 0
-42 -1031 -1039 0
-42 -1032 -1040 0
-42 -1033 -1041 0
-43 -1030 -1042 0
-43 -1031 -1043 0
-43 -1032 -1044 0
-43 -1033 -1045 0
-44 -1030 -1046 0
-44 -1031 -1047 0
-44 -1032 -1048 0
-44 -1033 -1049 0
-45 -1030 -1050 0
-45 -1031 -1051 0
-45 -1032 -1052 0
-45 -1033 -1053 0
-46 -1030 -1054 0
-46 -1031 -1055 0
-46 -1032 -1056 0
-46 -1033 -1057 0
-47 -1030 -1058 0
-47 -1031 -1059 0
-47 -1032 -1060 0
-47 -1033 -1061 0
-48 -1030 -1062 0
-48 -1031 -1063 0
-48 -1032 -1064 0
-48 -1033 -1065 0
-49 -1030 -1066 0
-49 -1031 -1067 0
-49 -1032 -1068 0
-49 -1033 -1069 0
-50 -1030 -1070 0
-50 -1031 -1071 0
-50 -1032 -1072 0
-50 -1033 -1073 0
-51 -1030 -1074 0
-51 -1031 -1075 0
-51 -1032 -1076 0
-51 -1033 -1077 0
-52 -1030 -1078 0
-52 -1031 -1079 0
-52 -1032 -1080 0
-52 -1033 -1081 0
-53 -1030 -1082 0
-53 -1031 -1083 0
-53 -1032 -1084 0
-53 -1033 -1085 0
-54 -1030 -1086 0
-54 -1031 -1087 0
-54 -1032 -1088 0
-54 -1033 -1089 0
-55 -1030 -1090 0
-55 -1031 -1091 0
-55 -1032 -1092 0
-55 -1033 -1093 0
-56 -1030 -1094 0
-56 -1031 -1095 0
-56 -1032 -1096 0
-56 -1033 -1097 0
-57 -1030 -1098 0
-57 -1031 -1099 0
-57 -1032 -1100 0
-57 -1033 -1101 0
-58 -1030 -1102 0
-58 -1031 -1103 0
-58 -1032 -1104 0
-58 -1033 -1105 0
-59 -1030 -1106 0
-59 -1031 -1107 0
-59 -1032 -1108 0
-59 -1033 -1109 0
-60 -1030 -1110 0
-60 -1031 -1111 0
-60 -1032 -1112 0
-60 -1033 -1113 0
-61 -1030 -1114 0
-61 -1031 -1115 0
-61 -1032 -1116 0
-61 -1033 -1117 0
-62 -1030 -1118 0
-62 -1031 -1119 0
-62 -1032 -1120 0
-62 -1033 -1121 0
-63 -1030 -1122 0
-63 -1031 -1123 0
-63 -1032 -1124 0
-63 -1033 -1125 0
-64 -1030 -1126 0
-64 -1031 -1127 0
-64 -1032 -1128 0
-64 -1033 -1129 0
-65 -1030 -1130 0
-65 -1031 -1131 0
-65 -1032 -1132 0
-65 -1033 -1133 0
-66 -1030 -1134 0
-66 -1031 -1135 0
-66 -1032 -1136 0
-66 -1033 -1137 0
-67 -1030 -1138 0
-67 -1031 -1139 0
-67 -1032 -1140 0
-67 -1033 -1141 0
-68 -1030 -1142 0
-68 -1031 -1143 0
-68 -1032 -1144 0
-68 -1033 -1145 0
-69 -1030 -1146 0
-69 -1031 -1147 0
-69 -1032 -1148 0
-69 -1033 -1149 0
-70 -1030 -1150 0
-70 -1031 -1151 0
-70 -1032 -1152 0
-70 -1033 -1153 0
-71 -1030 -1154 0
-71 -1031 -1155 0
-71 -1032 -1156 0
-71 -1033 -1157 0
-72 -1030 -1158 0
-72 -1031 -1159 0
-72 -1032 -1160 0
-72 -1033 -1161 0
-73 -1030 -1162 0
-73 -1031 -1163 0
-73 -1032 -1164 0
-73 -1033 -1165 0
-74 -1030 -1166 0
-74 -1031 -1167 0
-74 -1032 -1168 0
-74 -1033 -1169 0
-75 -1030 -1170 0
-75 -1031 -1171 0
-75 -1032 -1172 0
-75 -1033 -1173 0
-76 -1030 -1174 0
-76 -1031 -1175 0
-76 -1032 -1176 0
-76 -1033 -1177 0
-77 -1030 -1178 0
-77 -1031 -1179 0
-77 -1032 -1180 0
-77 -1033 -1181 0
-78 -1030 -1182 0
-78 -1031 -1183 0
-78 -1032 -1184 0
-78 -1033 -1185 0
-79 -1030 -1186 0
-79 -1031 -1187 0
-79 -1032 -1188 0
-79 -1033 -1189 0
-80 -1034 -1038 0
-80 -1035 -1039 0
-80 -1036 -1040 0
-80 -1037 -1041 0
-81 -1034 -1042 0
-81 -1035 -1043 0
-81 -1036 -1044 0
-81 -1037 -1045 0
-82 -1034 -1046 0
-82 -1035 -1047 0
-82 -1036 -1048 0
-82 -1037 -1049 0
-83 -1034 -1050 0
-83 -1035 -1051 0
-83 -1036 -1052 0
-83 -1037 -1053 0
-84 -1034 -1054 0
-84 -1035 -1055 0
-84 -1036 -1056 0
-84 -1037 -1057 0
-85 -1034 -1058 0
-85 -1035 -1059 0
-85 -1036 -1060 0
-85 -1037 -1061 0
-86 -1034 -1062 0
-86 -1035 -1063 0
-86 -1036 -1064 0
-86 -1037 -1065 0
-87 -1034 -1066 0
-87 -1035 -1067 0
-87 -1036 -1068 0
-87 -1037 -1069 0
-88 -1034 -1070 0
-88 -1035 -1071 0
-88 -1036 -1072 0
-88 -1037 -1073 0
-89 -1034 -1074 0
-89 -1035 -1075 0
-89 -1036 -1076 0
-89 -1037 -1077 0
-90 -1034 -1078 0
-90 -1035 -1079 0
-90 -1036 -1080 0
-90 -1037 -1081 0
-91 -1034 -1082 0
-91 -1035 -1083 0
-91 -1036 -1084 0
-91 -1037 -1085 0
-92 -1034 -1086 0
-92 -1035 -1087 0
-92 -1036 -1088 0
-92 -1037 -1089 0
-93 -1034 -1090 0
-93 -1035 -1091 0
-93 -1036 -1092 0
-93 -1037 -1093 0
-94 -1034 -1094 0
-94 -1035 -1095 0
-94 -1036 -1096 0
-94 -1037 -1097 0
-95 -1034 -1098 0
-95 -1035 -1099 0
-95 -1036 -1100 0
-95 -1037 -1101 0
-96 -1034 -1102 0
-96 -1035 -1103 0
-96 -1036 -1104 0
-96 -1037 -1105 0
-97 -1034 -1106 0
-97 -1035 -1107 0
-97 -1036 -1108 0
-97 -1037 -1109 0
-98 -1034 -1110 0
-98 -1035 -1111 0
-98 -1036 -1112 0
-98 -1037 -1113 0
-99 -1034 -1114 0
-99 -1035 -1115 0
-99 -1036 -1116 0
-99 -1037 -1117 0
-100 -1034 -1118 0
-100 -1035 -1119 0
-100 -1036 -1120 0
-100 -1037 -1121 0
-101 -1034 -1122 0
-101 -1035 -1123 0
-101 -1036 -1124 0
-101 -1037 -1125 0
-102 -1034 -1126 0
-102 -1035 -1127 0
-102 -1036 -1128 0
-102 -1037 -1129 0
-103 -1034 -1130 0
-103 -1035 -1131 0
-103 -1036 -1132 0
-103 -1037 -1133 0
-104 -1034 -1134 0
-104 -1035 -1135 0
-104 -1036 -1136 0
-104 -1037 -1137 0
-105 -1034 -1138 0
-105 -1035 -1139 0
-105 -1036 -1140 0
-105 -1037 -1141 0
-106 -1034 -1142 0
-106 -1035 -1143 0
-106 -1036 -1144 0
-106 -1037 -1145 0
-107 -1034 -1146 0
-107 -1035 -1147 0
-107 -1036 -1148 0
-107 -1037 -1149 0
-108 -1034 -1150 0
-108 -1035 -1151 0
-108 -1036 -1152 0
-108 -1037 -1153 0
-109 -1034 -1154 0
-109 -1035 -1155 0
-109 -1036 -1156 0
-109 -1037 -1157 0
-110 -1034 -1158 0
-110 -1035 -1159 0
-110 -1036 -1160 0
-110 -1037 -1161 0
-111 -1034 -1162 0
-111 -1035 -1163 0
-111 -1036 -1164 0
-111 -1037 -1165 0
-112 -1034 -1166 0
-112 -1035 -1167 0
-112 -1036 -1168 0
-112 -1037 -1169 0
-113 -1034 -1170 0
-113 -1035 -1171 0
-113 -1036 -1172 0
-113 -1037 -1173 0
-114 -1034 -1174 0
-114 -1035 -1175 0
-114 -1036 -1176 0
-114 -1037 -1177 0
-115 -1034 -1178 0
-115 -1035 -1179 0
-115 -1036 -1180 0
-115 -1037 -1181 0
-116 -1034 -1182 0
-116 -1035 -1183 0
-116 -1036 -1184 0
-116 -1037 -1185 0
-117 -1034 -1186 0
-117 -1035 -1187 0
-117 -1036 -1188 0
-117 -1037 -1189 0
-118 -1038 -1042 0
-118 -1039 -1043 0
-118 -1040 -1044 0
-118 -1041 -1045 0
-119 -1038 -1046 0
-119 -1039 -1047 0
-119 -1040 -1048 0
-119 -1041 -1049 0
-120 -1038 -1050 0
-120 -1039 -1051 0
-120 -1040 -1052 0
-120 -1041 -1053 0
-121 -1038 -1054 0
-121 -1039 -1055 0
-121 -1040 -1056 0
-121 -1041 -1057 0
-122 -1038 -1058 0
-122 -1039 -1059 0
-122 -1040 -1060 0
-122 -1041 -1061 0
-123 -1038 -1062 0
-123 -1039 -1063 0
-123 -1040 -1064 0
-123 -1041 -1065 0
-124 -1038 -1066 0
-124 -1039 -1067 0
-124 -1040 -1068 0
-124 -1041 -1069 0
-125 -1038 -1070 0
-125 -1039 -1071 0
-125 -1040 -1072 0
-125 -1041 -1073 0
-126 -1038 -1074 0
-126 -1039 -1075 0
-126 -1040 -1076 0
-126 -1041 -1077 0
-127 -1038 -1078 0
-127 -1039 -1079 0
-127 -1040 -1080 0
-127 -1041 -1081 0
-128 -1038 -1082 0
-128 -1039 -1083 0
-128 -1040 -1084 0
-128 -1041 -1085 0
-129 -1038 -1086 0
-129 -1039 -1087 0
-129 -1040 -1088 0
-129 -1041 -1089 0
-130 -1038 -1090 0
-130 -1039 -1091 0
-130 -1040 -1092 0
-130 -1041 -1093 0
-131 -1038 -1094 0
-131 -1039 -1095 0
-131 -1040 -1096 0
-131 -1041 -1097 0
-132 -1038 -1098 0
-132 -1039 -1099 0
-132 -1040 -1100 0
-132 -1041 -1101 0
-133 -1038 -1102 0
-133 -1039 -1103 0
-133 -1040 -1104 0
-133 -1041 -1105 0
-134 -1038 -1106 0
-134 -1039 -1107 0
-134 -1040 -1108 0
-134 -1041 -1109 0
-135 -1038 -1110 0
-135 -1039 -1111 0
-135 -1040 -1112 0
-135 -1041 -1113 0
-136 -1038 -1114 0
-136 -1039 -1115 0
-136 -1040 -1116 0
-136 -1041 -1117 0
-137 -1038 -1118 0
-137 -1039 -1119 0
-137 -1040 -1120 0
-137 -1041 -1121 0
-138 -1038 -1122 0
-138 -1039 -1123 0
-138 -1040 -1124 0
-138 -1041 -1125 0
-139 -1038 -1126 0
-139 -1039 -1127 0
-139 -1040 -1128 0
-139 -1041 -1129 0
-140 -1038 -1130 0
-140 -1039 -1131 0
-140 -1040 -1132 0
-140 -1041 -1133 0
-141 -1038 -1134 0
-141 -1039 -1135 0
-141 -1040 -1136 0
-141 -1041 -1137 0
-142 -1038 -1138 0
-142 -1039 -1139 0
-142 -1040 -1140 0
-142 -1041 -1141 0
-143 -1038 -1142 0
-143 -1039 -1143 0
-143 -1040 -1144 0
-143 -1041 -1145 0
-144 -1038 -1146 0
-144 -1039 -1147 0
-144 -1040 -1148 0
-144 -1041 -1149 0
-145 -1038 -1150 0
-145 -1039 -1151 0
-145 -1040 -1152 0
-145 -1041 -1153 0
-146 -1038 -1154 0
-146 -1039 -1155 0
-146 -1040 -1156 0
-146 -1041 -1157 0
-147 -1038 -1158 0
-147 -1039 -1159 0
-147 -1040 -1160 0
-147 -1041 -1161 0
-148 -1038 -1162 0
-148 -1039 -1163 0
-148 -1040 -1164 0
-148 -1041 -1165 0
-149 -1038 -1166 0
-149 -1039 -1167 0
-149 -1040 -1168 0
-149 -1041 -1169 0
-150 -1038 -1170 0
-150 -1039 -1171 0
-150 -1040 -1172 0
-150 -1041 -1173 0
-151 -1038 -1174 0
-151 -1039 -1175 0
-151 -1040 -1176 0
-151 -1041 -1177 0
-152 -1038 -1178 0
-152 -1039 -1179 0
-152 -1040 -1180 0
-152 -1041 -1181 0
-153 -1038 -1182 0
-153 -1039 -1183 0
-153 -1040 -1184 0
-153 -1041 -1185 0
-154 -1038 -1186 0
-154 -1039 -1187 0
-154 -1040 -1188 0
-154 -1041 -1189 0
-155 -1042 -1046 0
-155 -1043 -1047 0
-155 -1044 -1048 0
-155 -1045 -1049 0
-156 -1042 -1050 0
-156 -1043 -1051 0
-156 -1044 -1052 0
-156 -1045 -1053 0
-157 -1042 -1054 0
-157 -1043 -1055 0
-157 -1044 -1056 0
-157 -1045 -1057 0
-158 -1042 -1058 0
-158 -1043 -1059 0
-158 -1044 -1060 0
-158 -1045 -1061 0
-159 -1042 -1062 0
-159 -1043 -1063 0
-159 -1044 -1064 0
-159 -1045 -1065 0
-160 -1042 -1066 0
-160 -1043 -1067 0
-160 -1044 -1068 0
-160 -1045 -1069 0
-161 -1042 -1070 0
-161 -1043 -1071 0
-161 -1044 -1072 0
-161 -1045 -1073 0
-162 -1042 -1074 0
-162 -1043 -1075 0
-162 -1044 -1076 0
-162 -1045 -1077 0
-163 -1042 -1078 0
-163 -1043 -1079 0
-163 -1044 -1080 0
-163 -1045 -1081 0
-164 -1042 -1082 0
-164 -1043 -1083 0
-164 -1044 -1084 0
-164 -1045 -1085 0
-165 -1042 -1086 0
-165 -1043 -1087 0
-165 -1044 -1088 0
-165 -1045 -1089 0
-166 -1042 -1090 0
-166 -1043 -1091 0
-166 -1044 -1092 0
-166 -1045 -1093 0
-167 -1042 -1094 0
-167 -1043 -1095 0
-167 -1044 -1096 0
-167 -1045 -1097 0
-168 -1042 -1098 0
-168 -1043 -1099 0
-168 -1044 -1100 0
-168 -1045 -1101 0
-169 -1042 -1102 0
-169 -1043 -1103 0
-169 -1044 -1104 0
-169 -1045 -1105 0
-170 -1042 -1106 0
-170 -1043 -1107 0
-170 -1044 -1108 0
-170 -1045 -1109 0
-171 -1042 -1110 0
-171 -1043 -1111 0
-171 -1044 -1112 0
-171 -1045 -1113 0
-172 -1042 -1114 0
-172 -1043 -1115 0
-172 -1044 -1116 0
-172 -1045 -1117 0
-173 -1042 -1118 0
-173 -1043 -1119 0
-173 -1044 -1120 0
-173 -1045 -1121 0
-174 -1042 -1122 0
-174 -1043 -1123 0
-174 -1044 -1124 0
-174 -1045 -1125 0
-175 -1042 -1126 0
-175 -1043 -1127 0
-175 -1044 -1128 0
-175 -1045 -1129 0
-176 -1042 -1130 0
-176 -1043 -1131 0
-176 -1044 -1132 0
-176 -1045 -1133 0
-177 -1042 -1134 0
-177 -1043 -1135 0
-177 -1044 -1136 0
-177 -1045 -1137 0
-178 -1042 -1138 0
-178 -1043 -1139 0
-178 -1044 -1140 0
-178 -1045 -1141 0
-179 -1042 -1142 0
-179 -1043 -1143 0
-179 -1044 -1144 0
-179 -1045 -1145 0
-180 -1042 -1146 0
-180 -1043 -1147 0
-180 -1044 -1148 0
-180 -1045 -1149 0
-181 -1042 -1150 0
-181 -1043 -1151 0
-181 -1044 -1152 0
-181 -1045 -1153 0
-182 -1042 -1154 0
-182 -1043 -1155 0
-182 -1044 -1156 0
-182 -1045 -1157 0
-183 -1042 -1158 0
-183 -1043 -1159 0
-183 -1044 -1160 0
-183 -1045 -1161 0
-184 -1042 -1162 0
-184 -1043 -1163 0
-184 -1044 -1164 0
-184 -1045 -1165 0
-185 -1042 -1166 0
-185 -1043 -1167 0
-185 -1044 -1168 0
-185 -1045 -1169 0
-186 -1042 -1170 0
-186 -1043 -1171 0
-186 -1044 -1172 0
-186 -1045 -1173 0
-187 -1042 -1174 0
-187 -1043 -1175 0
-187 -1044 -1176 0
-187 -1045 -1177 0
-188 -1042 -1178 0
-188 -1043 -1179 0
-188 -1044 -1180 0
-188 -1045 -1181 0
-189 -1042 -1182 0
-189 -1043 -1183 0
-189 -1044 -1184 0
-189 -1045 -1185 0
-190 -1042 -1186 0
-190 -1043 -1187 0
-190 -1044 -1188 0
-190 -1045 -1189 0
-191 -1046 -1050 0
-191 -1047 -1051 0
-191 -1048 -1052 0
-191 -1049 -1053 0
-192 -1046 -1054 0
-192 -1047 -1055 0
-192 -1048 -1056 0
-192 -1049 -1057 0
-193 -1046 -1058 0
-193 -1047 -1059 0
-193 -1048 -1060 0
-193 -1049 -1061 0
-194 -1046 -1062 0
-194 -1047 -1063 0
-194 -1048 -1064 0
-194 -1049 -1065 0
-195 -1046 -1066 0
-195 -1047 -1067 0
-195 -1048 -1068 0
-195 -1049 -1069 0
-196 -1046 -1070 0
-196 -1047 -1071 0
-196 -1048 -1072 0
-196 -1049 -1073 0
-197 -1046 -1074 0
-197 -1047 -1075 0
-197 -1048 -1076 0
-197 -1049 -1077 0
-198 -1046 -1078 0
-198 -1047 -1079 0
-198 -1048 -1080 0
-198 -1049 -1081 0
-199 -1046 -1082 0
-199 -1047 -1083 0
-199 -1048 -1084 0
-199 -1049 -1085 0
-200 -1046 -1086 0
-200 -1047 -1087 0
-200 -1048 -1088 0
-200 -1049 -1089 0
-201 -1046 -1090 0
-201 -1047 -1091 0
-201 -1048 -1092 0
-201 -1049 -1093 0
-202 -1046 -1094 0
-202 -1047 -1095 0
-202 -1048 -1096 0
-202 -1049 -1097 0
-203 -1046 -1098 0
-203 -1047 -1099 0
-203 -1048 -1100 0
-203 -1049 -1101 0
-204 -1046 -1102 0
-204 -1047 -1103 0
-204 -1048 -1104 0
-204 -1049 -1105 0
-205 -1046 -1106 0
-205 -1047 -1107 0
-205 -1048 -1108 0
-205 -1049 -1109 0
-206 -1046 -1110 0
-206 -1047 -1111 0
-206 -1048 -1112 0
-206 -1049 -1113 0
-207 -1046 -1114 0
-207 -1047 -1115 0
-207 -1048 -1116 0
-207 -1049 -1117 0
-208 -1046 -1118 0
-208 -1047 -1119 0
-208 -1048 -1120 0
-208 -1049 -1121 0
-209 -1046 -1122 0
-209 -1047 -1123 0
-209 -1048 -1124 0
-209 -1049 -1125 0
-210 -1046 -1126 0
-210 -1047 -1127 0
-210 -1048 -1128 0
-210 -1049 -1129 0
-211 -1046 -1130 0
-211 -1047 -1131 0
-211 -1048 -1132 0
-211 -1049 -1133 0
-212 -1046 -1134 0
-212 -1047 -1135 0
-212 -1048 -1136 0
-212 -1049 -1137 0
-213 -1046 -1138 0
-213 -1047 -1139 0
-213 -1048 -1140 0
-213 -1049 -1141 0
-214 -1046 -1142 0
-214 -1047 -1143 0
-214 -1048 -1144 0
-214 -1049 -1145 0
-215 -1046 -1146 0
-215 -1047 -1147 0
-215 -1048 -1148 0
-215 -1049 -1149 0
-216 -1046 -1150 0
-216 -1047 -1151 0
-216 -1048 -1152 0
-216 -1049 -1153 0
-217 -1046 -1154 0
-217 -1047 -1155 0
-217 -1048 -1156 0
-217 -1049 -1157 0
-218 -1046 -1158 0
-218 -1047 -1159 0
-218 -1048 -1160 0
-218 -1049 -1161 0
-219 -1046 -1162 0
-219 -1047 -1163 0
-219 -1048 -1164 0
-219 -1049 -1165 0
-220 -1046 -1166 0
-220 -1047 -1167 0
-220 -1048 -1168 0
-220 -1049 -1169 0
-221 -1046 -1170 0
-221 -1047 -1171 0
-221 -1048 -1172 0
-221 -1049 -1173 0
-222 -1046 -1174 0
-222 -1047 -1175 0
-222 -1048 -1176 0
-222 -1049 -1177 0
-223 -1046 -1178 0
-223 -1047 -1179 0
-223 -1048 -1180 0
-223 -1049 -1181 0
-224 -1046 -1182 0
-224 -1047 -1183 0
-224 -1048 -1184 0
-224 -1049 -1185 0
-225 -1046 -1186 0
-225 -1047 -1187 0
-225 -1048 -1188 0
-225 -1049 -1189 0
-226 -1050 -1054 0
-226 -1051 -1055 0
-226 -1052 -1056 0
-226 -1053 -1057 0
-227 -1050 -1058 0
-227 -1051 -1059 0
-227 -1052 -1060 0
-227 -1053 -1061 0
-228 -1050 -1062 0
-228 -1051 -1063 0
-228 -1052 -1064 0
-228 -1053 -1065 0
-229 -1050 -1066 0
-229 -1051 -1067 0
-229 -1052 -1068 0
-229 -1053 -1069 0
-230 -1050 -1070 0
-230 -1051 -1071 0
-230 -1052 -1072 0
-230 -1053 -1073 0
-231 -1050 -1074 0
-231 -1051 -1075 0
-231 -1052 -1076 0
-231 -1053 -1077 0
-232 -1050 -1078 0
-232 -1051 -1079 0
-232 -1052 -1080 0
-232 -1053 -1081 0
-233 -1050 -1082 0
-233 -1051 -1083 0
-233 -1052 -1084 0
-233 -1053 -1085 0
-234 -1050 -1086 0
-234 -1051 -1087 0
-234 -1052 -1088 0
-234 -1053 -1089 0
-235 -1050 -1090 0
-235 -1051 -1091 0
-235 -1052 -1092 0
-235 -1053 -1093 0
-236 -1050 -1094 0
-236 -1051 -1095 0
-236 -1052 -1096 0
-236 -1053 -1097 0
-237 -1050 -1098 0
-237 -1051 -1099 0
-237 -1052 -1100 0
-237 -1053 -1101 0
-238 -1050 -1102 0
-238 -1051 -1103 0
-238 -1052 -1104 0
-238 -1053 -1105 0
-239 -1050 -1106 0
-239 -1051 -1107 0
-239 -1052 -1108 0
-239 -1053 -1109 0
-240 -1050 -1110 0
-240 -1051 -1111 0
-240 -1052 -1112 0
-240 -1053 -1113 0
-241 -1050 -1114 0
-241 -1051 -1115 0
-241 -1052 -1116 0
-241 -1053 -1117 0
-242 -1050 -1118 0
-242 -1051 -1119 0
-242 -1052 -1120 0
-242 -1053 -1121 0
-243 -1050 -1122 0
-243 -1051 -1123 0
-243 -1052 -1124 0
-243 -1053 -1125 0
-244 -1050 -1126 0
-244 -1051 -1127 0
-244 -1052 -1128 0
-244 -1053 -1129 0
-245 -1050 -1130 0
-245 -1051 -1131 0
-245 -1052 -1132 0
-245 -1053 -1133 0
-246 -1050 -1134 0
-246 -1051 -1135 0
-246 -1052 -1136 0
-246 -1053 -1137 0
-247 -1050 -1138 0
-247 -1051 -1139 0
-247 -1052 -1140 0
-247 -1053 -1141 0
-248 -1050 -1142 0
-248 -1051 -1143 0
-248 -1052 -1144 0
-248 -1053 -1145 0
-249 -1050 -1146 0
-249 -1051 -1147 0
-249 -1052 -1148 0
-249 -1053 -1149 0
-250 -1050 -1150 0
-250 -1051 -1151 0
-250 -1052 -1152 0
-250 -1053 -1153 0
-251 -1050 -1154 0
-251 -1051 -1155 0
-251 -1052 -1156 0
-251 -1053 -1157 0
-252 -1050 -1158 0
-252 -1051 -1159 0
-252 -1052 -1160 0
-252 -1053 -1161 0
-253 -1050 -1162 0
-253 -1051 -1163 0
-253 -1052 -1164 0
-253 -1053 -1165 0
-254 -1050 -1166 0
-254 -1051 -1167 0
-254 -1052 -1168 0
-254 -1053 -1169 0
-255 -1050 -1170 0
-255 -1051 -1171 0
-255 -1052 -1172 0
-255 -1053 -1173 0
-256 -1050 -1174 0
-256 -1051 -1175 0
-256 -1052 -1176 0
-256 -1053 -1177 0
-257 -1050 -1178 0
-257 -1051 -1179 0
-257 -1052 -1180 0
-257 -1053 -1181 0
-258 -1050 -1182 0
-258 -1051 -1183 0
-258 -1052 -1184 0
-258 -1053 -1185 0
-259 -1050 -1186 0
-259 -1051 -1187 0
-259 -1052 -1188 0
-259 -1053 -1189 0
-260 -1054 -1058 0
-260 -1055 -1059 0
-260 -1056 -1060 0
-260 -1057 -1061 0
-261 -1054 -1062 0
-261 -1055 -1063 0
-261 -1056 -1064 0
-261 -1057 -1065 0
-262 -1054 -1066 0
-262 -1055 -1067 0
-262 -1056 -1068 0
-262 -1057 -1069 0
-263 -1054 -1070 0
-263 -1055 -1071 0
-263 -1056 -1072 0
-263 -1057 -1073 0
-264 -1054 -1074 0
-264 -1055 -1075 0
-264 -1056 -1076 0
-264 -1057 -1077 0
-265 -1054 -1078 0
-265 -1055 -1079 0
-265 -1056 -1080 0
-265 -1057 -1081 0
-266 -1054 -1082 0
-266 -1055 -1083 0
-266 -1056 -1084 0
-266 -1057 -1085 0
-267 -1054 -1086 0
-267 -1055 -1087 0
-267 -1056 -1088 0
-267 -1057 -1089 0
-268 -1054 -1090 0
-268 -1055 -1091 0
-268 -1056 -1092 0
-268 -1057 -1093 0
-269 -1054 -1094 0
-269 -1055 -1095 0
-269 -1056 -1096 0
-269 -1057 -1097 0
-270 -1054 -1098 0
-270 -1055 -1099 0
-270 -1056 -1100 0
-270 -1057 -1101 0
-271 -1054 -1102 0
-271 -1055 -1103 0
-271 -1056 -1104 0
-271 -1057 -1105 0
-272 -1054 -1106 0
-272 -1055 -1107 0
-272 -1056 -1108 0
-272 -1057 -1109 0
-273 -1054 -1110 0
-273 -1055 -1111 0
-273 -1056 -1112 0
-273 -1057 -1113 0
-274 -1054 -1114 0
-274 -1055 -1115 0
-274 -1056 -1116 0
-274 -1057 -1117 0
-275 -1054 -1118 0
-275 -1055 -1119 0
-275 -1056 -1120 0
-275 -1057 -1121 0
-276 -1054 -1122 0
-276 -1055 -1123 0
-276 -1056 -1124 0
-276 -1057 -1125 0
-277 -1054 -1126 0
-277 -1055 -1127 0
-277 -1056 -1128 0
-277 -1057 -1129 0
-278 -1054 -1130 0
-278 -1055 -1131 0
-278 -1056 -1132 0
-278 -1057 -1133 0
-279 -1054 -1134 0
-279 -1055 -1135 0
-279 -1056 -1136 0
-279 -1057 -1137 0
-280 -1054 -1138 0
-280 -1055 -1139 0
-280 -1056 -1140 0
-280 -1057 -1141 0
-281 -1054 -1142 0
-281 -1055 -1143 0
-281 -1056 -1144 0
-281 -1057 -1145 0
-282 -1054 -1146 0
-282 -1055 -1147 0
-282 -1056 -1148 0
-282 -1057 -1149 0
-283 -1054 -1150 0
-283 -1055 -1151 0
-283 -1056 -1152 0
-283 -1057 -1153 0
-284 -1054 -1154 0
-284 -1055 -1155 0
-284 -1056 -1156 0
-284 -1057 -1157 0
-285 -1054 -1158 0
-285 -1055 -1159 0
-285 -1056 -1160 0
-285 -1057 -1161 0
-286 -1054 -1162 0
-286 -1055 -1163 0
-286 -1056 -1164 0
-286 -1057 -1165 0
-287 -1054 -1166 0
-287 -1055 -1167 0
-287 -1056 -1168 0
-287 -1057 -1169 0
-288 -1054 -1170 0
-288 -1055 -1171 0
-288 -1056 -1172 0
-288 -1057 -1173 0
-289 -1054 -1174 0
-289 -1055 -1175 0
-289 -1056 -1176 0
-289 -1057 -1177 0
-290 -1054 -1178 0
-290 -1055 -1179 0
-290 -1056 -1180 0
-290 -1057 -1181 0
-291 -1054 -1182 0
-291 -1055 -1183 0
-291 -1056 -1184 0
-291 -1057 -1185 0
-292 -1054 -1186 0
-292 -1055 -1187 0
-292 -1056 -1188 0
-292 -1057 -1189 0
-293 -1058 -1062 0
-293 -1059 -1063 0
-293 -1060 -1064 0
-293 -1061 -1065 0
-294 -1058 -1066 0
-294 -1059 -1067 0
-294 -1060 -1068 0
-294 -1061 -1069 0
-295 -1058 -1070 0
-295 -1059 -1071 0
-295 -1060 -1072 0
-295 -1061 -1073 0
-296 -1058 -1074 0
-296 -1059 -1075 0
-296 -1060 -1076 0
-296 -1061 -1077 0
-297 -1058 -1078 0
-297 -1059 -1079 0
-297 -1060 -1080 0
-297 -1061 -1081 0
-298 -1058 -1082 0
-298 -1059 -1083 0
-298 -1060 -1084 0
-298 -1061 -1085 0
-299 -1058 -1086 0
-299 -1059 -1087 0
-299 -1060 -1088 0
-299 -1061 -1089 0
-300 -1058 -1090 0
-300 -1059 -1091 0
-300 -1060 -1092 0
-300 -1061 -1093 0
-301 -1058 -1094 0
-301 -1059 -1095 0
-301 -1060 -1096 0
-301 -1061 -1097 0
-302 -1058 -1098 0
-302 -1059 -1099 0
-302 -1060 -1100 0
-302 -1061 -1101 0
-303 -1058 -1102 0
-303 -1059 -1103 0
-303 -1060 -1104 0
-303 -1061 -1105 0
-304 -1058 -1106 0
-304 -1059 -1107 0
-304 -1060 -1108 0
-304 -1061 -1109 0
-305 -1058 -1110 0
-305 -1059 -1111 0
-305 -1060 -1112 0
-305 -1061 -1113 0
-306 -1058 -1114 0
-306 -1059 -1115 0
-306 -1060 -1116 0
-306 -1061 -1117 0
-307 -1058 -1118 0
-307 -1059 -1119 0
-307 -1060 -1120 0
-307 -1061 -1121 0
-308 -1058 -1122 0
-308 -1059 -1123 0
-308 -1060 -1124 0
-308 -1061 -1125 0
-309 -1058 -1126 0
-309 -1059 -1127 0
-309 -1060 -1128 0
-309 -1061 -1129 0
-310 -1058 -1130 0
-310 -1059 -1131 0
-310 -1060 -1132 0
-310 -1061 -1133 0
-311 -1058 -1134 0
-311 -1059 -1135 0
-311 -1060 -1136 0
-311 -1061 -1137 0
-312 -1058 -1138 0
-312 -1059 -1139 0
-312 -1060 -1140 0
-312 -1061 -1141 0
-313 -1058 -1142 0
-313 -1059 -1143 0
-313 -1060 -1144 0
-313 -1061 -1145 0
-314 -1058 -1146 0
-314 -1059 -1147 0
-314 -1060 -1148 0
-314 -1061 -1149 0
-315 -1058 -1150 0
-315 -1059 -1151 0
-315 -1060 -1152 0
-315 -1061 -1153 0
-316 -1058 -1154 0
-316 -1059 -1155 0
-316 -1060 -1156 0
-316 -1061 -1157 0
-317 -1058 -1158 0
-317 -1059 -1159 0
-317 -1060 -1160 0
-317 -1061 -1161 0
-318 -1058 -1162 0
-318 -1059 -1163 0
-318 -1060 -1164 0
-318 -1061 -1165 0
-319 -1058 -1166 0
-319 -1059 -1167 0
-319 -1060 -1168 0
-319 -1061 -1169 0
-320 -1058 -1170 0
-320 -1059 -1171 0
-320 -1060 -1172 0
-320 -1061 -1173 0
-321 -1058 -1174 0
-321 -1059 -1175 0
-321 -1060 -1176 0
-321 -1061 -1177 0
-322 -1058 -1178 0
-322 -1059 -1179 0
-322 -1060 -1180 0
-322 -1061 -1181 0
-323 -1058 -1182 0
-323 -1059 -1183 0
-323 -1060 -1184 0
-323 -1061 -1185 0
-324 -1058 -1186 0
-324 -1059 -1187 0
-324 -1060 -1188 0
-324 -1061 -1189 0
-325 -1062 -1066 0
-325 -1063 -1067 0
-325 -1064 -1068 0
-325 -1065 -1069 0
-326 -1062 -1070 0
-326 -1063 -1071 0
-326 -1064 -1072 0
-326 -1065 -1073 0
-327 -1062 -1074 0
-327 -1063 -1075 0
-327 -1064 -1076 0
-327 -1065 -1077 0
-328 -1062 -1078 0
-328 -1063 -1079 0
-328 -1064 -1080 0
-328 -1065 -1081 0
-329 -1062 -1082 0
-329 -1063 -1083 0
-329 -1064 -1084 0
-329 -1065 -1085 0
-330 -1062 -1086 0
-330 -1063 -1087 0
-330 -1064 -1088 0
-330 -1065 -1089 0
-331 -1062 -1090 0
-331 -1063 -1091 0
-331 -1064 -1092 0
-331 -1065 -1093 0
-332 -1062 -1094 0
-332 -1063 -1095 0
-332 -1064 -1096 0
-332 -1065 -1097 0
-333 -1062 -1098 0
-333 -1063 -1099 0
-333 -1064 -1100 0
-333 -1065 -1101 0
-334 -1062 -1102 0
-334 -1063 -1103 0
-334 -1064 -1104 0
-334 -1065 -1105 0
-335 -1062 -1106 0
-335 -1063 -1107 0
-335 -1064 -1108 0
-335 -1065 -1109 0
-336 -1062 -1110 0
-336 -1063 -1111 0
-336 -1064 -1112 0
-336 -1065 -1113 0
-337 -1062 -1114 0
-337 -1063 -1115 0
-337 -1064 -1116 0
-337 -1065 -1117 0
-338 -1062 -1118 0
-338 -1063 -1119 0
-338 -1064 -1120 0
-338 -1065 -1121 0
-339 -1062 -1122 0
-339 -1063 -1123 0
-339 -1064 -1124 0
-339 -1065 -1125 0
-340 -1062 -1126 0
-340 -1063 -1127 0
-340 -1064 -1128 0
-340 -1065 -1129 0
-341 -1062 -1130 0
-341 -1063 -1131 0
-341 -1064 -1132 0
-341 -1065 -1133 0
-342 -1062 -1134 0
-342 -1063 -1135 0
-342 -1064 -1136 0
-342 -1065 -1137 0
-343 -1062 -1138 0
-343 -1063 -1139 0
-343 -1064 -1140 0
-343 -1065 -1141 0
-344 -1062 -1142 0
-344 -1063 -1143 0
-344 -1064 -1144 0
-344 -1065 -1145 0
-345 -1062 -1146 0
-345 -1063 -1147 0
-345 -1064 -1148 0
-345 -1065 -1149 0
-346 -1062 -1150 0
-346 -1063 -1151 0
-346 -1064 -1152 0
-346 -1065 -1153 0
-347 -1062 -1154 0
-347 -1063 -1155 0
-347 -1064 -1156 0
-347 -1065 -1157 0
-348 -1062 -1158 0
-348 -1063 -1159 0
-348 -1064 -1160 0
-348 -1065 -1161 0
-349 -1062 -1162 0
-349 -1063 -1163 0
-349 -1064 -1164 0
-349 -1065 -1165 0
-350 -1062 -1166 0
-350 -1063 -1167 0
-350 -1064 -1168 0
-350 -1065 -1169 0
-351 -1062 -1170 0
-351 -1063 -1171 0
-351 -1064 -1172 0
-351 -1065 -1173 0
-352 -1062 -1174 0
-352 -1063 -1175 0
-352 -1064 -1176 0
-352 -1065 -1177 0
-353 -1062 -1178 0
-353 -1063 -1179 0
-353 -1064 -1180 0
-353 -1065 -1181 0
-354 -1062 -1182 0
-354 -1063 -1183 0
-354 -1064 -1184 0
-354 -1065 -1185 0
-355 -1062 -1186 0
-355 -1063 -1187 0
-355 -1064 -1188 0
-355 -1065 -1189 0
-356 -1066 -1070 0
-356 -1067 -1071 0
-356 -1068 -1072 0
-356 -1069 -1073 0
-357 -1066 -1074 0
-357 -1067 -1075 0
-357 -1068 -1076 0
-357 -1069 -1077 0
-358 -1066 -1078 0
-358 -1067 -1079 0
-358 -1068 -1080 0
-358 -1069 -1081 0
-359 -1066 -1082 0
-359 -1067 -1083 0
-359 -1068 -1084 0
-359 -1069 -1085 0
-360 -1066 -1086 0
-360 -1067 -1087 0
-360 -1068 -1088 0
-360 -1069 -1089 0
-361 -1066 -1090 0
-361 -1067 -1091 0
-361 -1068 -1092 0
-361 -1069 -1093 0
-362 -1066 -1094 0
-362 -1067 -1095 0
-362 -1068 -1096 0
-362 -1069 -1097 0
-363 -1066 -1098 0
-363 -1067 -1099 0
-363 -1068 -1100 0
-363 -1069 -1101 0
-364 -1066 -1102 0
-364 -1067 -1103 0
-364 -1068 -1104 0
-364 -1069 -1105 0
-365 -1066 -1106 0
-365 -1067 -1107 0
-365 -1068 -1108 0
-365 -1069 -1109 0
-366 -1066 -1110 0
-366 -1067 -1111 0
-366 -1068 -1112 0
-366 -1069 -1113 0
-367 -1066 -1114 0
-367 -1067 -1115 0
-367 -1068 -1116 0
-367 -1069 -1117 0
-368 -1066 -1118 0
-368 -1067 -1119 0
-368 -1068 -1120 0
-368 -1069 -1121 0
-369 -1066 -1122 0
-369 -1067 -1123 0
-369 -1068 -1124 0
-369 -1069 -1125 0
-370 -1066 -1126 0
-370 -1067 -1127 0
-370 -1068 -1128 0
-370 -1069 -1129 0
-371 -1066 -1130 0
-371 -1067 -1131 0
-371 -1068 -1132 0
-371 -1069 -1133 0
-372 -1066 -1134 0
-372 -1067 -1135 0
-372 -1068 -1136 0
-372 -1069 -1137 0
-373 -1066 -1138 0
-373 -1067 -1139 0
-373 -1068 -1140 0
-373 -1069 -1141 0
-374 -1066 -1142 0
-374 -1067 -1143 0
-374 -1068 -1144 0
-374 -1069 -1145 0
-375 -1066 -1146 0
-375 -1067 -1147 0
-375 -1068 -1148 0
-375 -1069 -1149 0
-376 -1066 -1150 0
-376 -1067 -1151 0
-376 -1068 -1152 0
-376 -1069 -1153 0
-377 -1066 -1154 0
-377 -1067 -1155 0
-377 -1068 -1156 0
-377 -1069 -1157 0
-378 -1066 -1158 0
-378 -1067 -1159 0
-378 -1068 -1160 0
-378 -1069 -1161 0
-379 -1066 -1162 0
-379 -1067 -1163 0
-379 -1068 -1164 0
-379 -1069 -1165 0
-380 -1066 -1166 0
-380 -1067 -1167 0
-380 -1068 -1168 0
-380 -1069 -1169 0
-381 -1066 -1170 0
-381 -1067 -1171 0
-381 -1068 -1172 0
-381 -1069 -1173 0
-382 -1066 -1174 0
-382 -1067 -1175 0
-382 -1068 -1176 0
-382 -1069 -1177 0
-383 -1066 -1178 0
-383 -1067 -1179 0
-383 -1068 -1180 0
-383 -1069 -1181 0
-384 -1066 -1182 0
-384 -1067 -1183 0
-384 -1068 -1184 0
-384 -1069 -1185 0
-385 -1066 -1186 0
-385 -1067 -1187 0
-385 -1068 -1188 0
-385 -1069 -1189 0
-386 -1070 -1074 0
-386 -1071 -1075 0
-386 -1072 -1076 0
-386 -1073 -1077 0
-387 -1070 -1078 0
-387 -1071 -1079 0
-387 -1072 -1080 0
-387 -1073 -1081 0
-388 -1070 -1082 0
-388 -1071 -1083 0
-388 -1072 -1084 0
-388 -1073 -1085 0
-389 -1070 -1086 0
-389 -1071 -1087 0
-389 -1072 -1088 0
-389 -1073 -1089 0
-390 -1070 -1090 0
-390 -1071 -1091 0
-390 -1072 -1092 0
-390 -1073 -1093 0
-391 -1070 -1094 0
-391 -1071 -1095 0
-391 -1072 -1096 0
-391 -1073 -1097 0
-392 -1070 -1098 0
-392 -1071 -1099 0
-392 -1072 -1100 0
-392 -1073 -1101 0
-393 -1070 -1102 0
-393 -1071 -1103 0
-393 -1072 -1104 0
-393 -1073 -1105 0
-394 -1070 -1106 0
-394 -1071 -1107 0
-394 -1072 -1108 0
-394 -1073 -1109 0
-395 -1070 -1110 0
-395 -1071 -1111 0
-395 -1072 -1112 0
-395 -1073 -1113 0
-396 -1070 -1114 0
-396 -1071 -1115 0
-396 -1072 -1116 0
-396 -1073 -1117 0
-397 -1070 -1118 0
-397 -1071 -1119 0
-397 -1072 -1120 0
-397 -1073 -1121 0
-398 -1070 -1122 0
-398 -1071 -1123 0
-398 -1072 -1124 0
-398 -1073 -1125 0
-399 -1070 -1126 0
-399 -1071 -1127 0
-399 -1072 -1128 0
-399 -1073 -1129 0
-400 -1070 -1130 0
-400 -1071 -1131 0
-400 -1072 -1132 0
-400 -1073 -1133 0
-401 -1070 -1134 0
-401 -1071 -1135 0
-401 -1072 -1136 0
-401 -1073 -1137 0
-402 -1070 -1138 0
-402 -1071 -1139 0
-402 -1072 -1140 0
-402 -1073 -1141 0
-403 -1070 -1142 0
-403 -1071 -1143 0
-403 -1072 -1144 0
-403 -1073 -1145 0
-404 -1070 -1146 0
-404 -1071 -1147 0
-404 -1072 -1148 0
-404 -1073 -1149 0
-405 -1070 -1150 0
-405 -1071 -1151 0
-405 -1072 -1152 0
-405 -1073 -1153 0
-406 -1070 -1154 0
-406 -1071 -1155 0
-406 -1072 -1156 0
-406 -1073 -1157 0
-407 -1070 -1158 0
-407 -1071 -1159 0
-407 -1072 -1160 0
-407 -1073 -1161 0
-408 -1070 -1162 0
-408 -1071 -1163 0
-408 -1072 -1164 0
-408 -1073 -1165 0
-409 -1070 -1166 0
-409 -1071 -1167 0
-409 -1072 -1168 0
-409 -1073 -1169 0
-410 -1070 -1170 0
-410 -1071 -1171 0
-410 -1072 -1172 0
-410 -1073 -1173 0
-411 -1070 -1174 0
-411 -1071 -1175 0
-411 -1072 -1176 0
-411 -1073 -1177 0
-412 -1070 -1178 0
-412 -1071 -1179 0
-412 -1072 -1180 0
-412 -1073 -1181 0
-413 -1070 -1182 0
-413 -1071 -1183 0
-413 -1072 -1184 0
-413 -1073 -1185 0
-414 -1070 -1186 0
-414 -1071 -1187 0
-414 -1072 -1188 0
-414 -1073 -1189 0
-415 -1074 -1078 0
-415 -1075 -1079 0
-415 -1076 -1080 0
-415 -1077 -1081 0
-416 -1074 -1082 0
-416 -1075 -1083 0
-416 -1076 -1084 0
-416 -1077 -1085 0
-417 -1074 -1086 0
-417 -1075 -1087 0
-417 -1076 -1088 0
-417 -1077 -1089 0
-418 -1074 -1090 0
-418 -1075 -1091 0
-418 -1076 -1092 0
-418 -1077 -1093 0
-419 -1074 -1094 0
-419 -1075 -1095 0
-419 -1076 -1096 0
-419 -1077 -1097 0
-420 -1074 -1098 0
-420 -1075 -1099 0
-420 -1076 -1100 0
-420 -1077 -1101 0
-421 -1074 -1102 0
-421 -1075 -1103 0
-421 -1076 -1104 0
-421 -1077 -1105 0
-422 -1074 -1106 0
-422 -1075 -1107 0
-422 -1076 -1108 0
-422 -1077 -1109 0
-423 -1074 -1110 0
-423 -1075 -1111 0
-423 -1076 -1112 0
-423 -1077 -1113 0
-424 -1074 -1114 0
-424 -1075 -1115 0
-424 -1076 -1116 0
-424 -1077 -1117 0
-425 -1074 -1118 0
-425 -1075 -1119 0
-425 -1076 -1120 0
-425 -1077 -1121 0
-426 -1074 -1122 0
-426 -1075 -1123 0
-426 -1076 -1124 0
-426 -1077 -1125 0
-427 -1074 -1126 0
-427 -1075 -1127 0
-427 -1076 -1128 0
-427 -1077 -1129 0
-428 -1074 -1130 0
-428 -1075 -1131 0
-428 -1076 -1132 0
-428 -1077 -1133 0
-429 -1074 -1134 0
-429 -1075 -1135 0
-429 -1076 -1136 0
-429 -1077 -1137 0
-430 -1074 -1138 0
-430 -1075 -1139 0
-430 -1076 -1140 0
-430 -1077 -1141 0
-431 -1074 -1142 0
-431 -1075 -1143 0
-431 -1076 -1144 0
-431 -1077 -1145 0
-432 -1074 -1146 0
-432 -1075 -1147 0
-432 -1076 -1148 0
-432 -1077 -1149 0
-433 -1074 -1150 0
-433 -1075 -1151 0
-433 -1076 -1152 0
-433 -1077 -1153 0
-434 -1074 -1154 0
-434 -1075 -1155 0
-434 -1076 -1156 0
-434 -1077 -1157 0
-435 -1074 -1158 0
-435 -1075 -1159 0
-435 -1076 -1160 0
-435 -1077 -1161 0
-436 -1074 -1162 0
-436 -1075 -1163 0
-436 -1076 -1164 0
-436 -1077 -1165 0
-437 -1074 -1166 0
-437 -1075 -1167 0
-437 -1076 -1168 0
-437 -1077 -1169 0
-438 -1074 -1170 0
-438 -1075 -1171 0
-438 -1076 -1172 0
-438 -1077 -1173 0
-439 -1074 -1174 0
-439 -1075 -1175 0
-439 -1076 -1176 0
-439 -1077 -1177 0
-440 -1074 -1178 0
-440 -1075 -1179 0
-440 -1076 -1180 0
-440 -1077 -1181 0
-441 -1074 -1182 0
-441 -1075 -1183 0
-441 -1076 -1184 0
-441 -1077 -1185 0
-442 -1074 -1186 0
-442 -1075 -1187 0
-442 -1076 -1188 0
-442 -1077 -1189 0
-443 -1078 -1082 0
-443 -1079 -1083 0
-443 -1080 -1084 0
-443 -1081 -1085 0
-444 -1078 -1086 0
-444 -1079 -1087 0
-444 -1080 -1088 0
-444 -1081 -1089 0
-445 -1078 -1090 0
-445 -1079 -1091 0
-445 -1080 -1092 0
-445 -1081 -1093 0
-446 -1078 -1094 0
-446 -1079 -1095 0
-446 -1080 -1096 0
-446 -1081 -1097 0
-447 -1078 -1098 0
-447 -1079 -1099 0
-447 -1080 -1100 0
-447 -1081 -1101 0
-448 -1078 -1102 0
-448 -1079 -1103 0
-448 -1080 -1104 0
-448 -1081 -1105 0
-449 -1078 -1106 0
-449 -1079 -1107 0
-449 -1080 -1108 0
-449 -1081 -1109 0
-450 -1078 -1110 0
-450 -1079 -1111 0
-450 -1080 -1112 0
-450 -1081 -1113 0
-451 -1078 -1114 0
-451 -1079 -1115 0
-451 -1080 -1116 0
-451 -1081 -1117 0
-452 -1078 -1118 0
-452 -1079 -1119 0
-452 -1080 -1120 0
-452 -1081 -1121 0
-453 -1078 -1122 0
-453 -1079 -1123 0
-453 -1080 -1124 0
-453 -1081 -1125 0
-454 -1078 -1126 0
-454 -1079 -1127 0
-454 -1080 -1128 0
-454 -1081 -1129 0
-455 -1078 -1130 0
-455 -1079 -1131 0
-455 -1080 -1132 0
-455 -1081 -1133 0
-456 -1078 -1134 0
-456 -1079 -1135 0
-456 -1080 -1136 0
-456 -1081 -1137 0
-457 -1078 -1138 0
-457 -1079 -1139 0
-457 -1080 -1140 0
-457 -1081 -1141 0
-458 -1078 -1142 0
-458 -1079 -1143 0
-458 -1080 -1144 0
-458 -1081 -1145 0
-459 -1078 -1146 0
-459 -1079 -1147 0
-459 -1080 -1148 0
-459 -1081 -1149 0
-460 -1078 -1150 0
-460 -1079 -1151 0
-460 -1080 -1152 0
-460 -1081 -1153 0
-461 -1078 -1154 0
-461 -1079 -1155 0
-461 -1080 -1156 0
-461 -1081 -1157 0
-462 -1078 -1158 0
-462 -1079 -1159 0
-462 -1080 -1160 0
-462 -1081 -1161 0
-463 -1078 -1162 0
-463 -1079 -1163 0
-463 -1080 -1164 0
-463 -1081 -1165 0
-464 -1078 -1166 0
-464 -1079 -1167 0
-464 -1080 -1168 0
-464 -1081 -1169 0
-465 -1078 -1170 0
-465 -1079 -1171 0
-465 -1080 -1172 0
-465 -1081 -1173 0
-466 -1078 -1174 0
-466 -1079 -1175 0
-466 -1080 -1176 0
-466 -1081 -1177 0
-467 -1078 -1178 0
-467 -1079 -1179 0
-467 -1080 -1180 0
-467 -1081 -1181 0
-468 -1078 -1182 0
-468 -1079 -1183 0
-468 -1080 -1184 0
-468 -1081 -1185 0
-469 -1078 -1186 0
-469 -1079 -1187 0
-469 -1080 -1188 0
-469 -1081 -1189 0
-470 -1082 -1086 0
-470 -1083 -1087 0
-470 -1084 -1088 0
-470 -1085 -1089 0
-471 -1082 -1090 0
-471 -1083 -1091 0
-471 -1084 -1092 0
-471 -1085 -1093 0
-472 -1082 -1094 0
-472 -1083 -1095 0
-472 -1084 -1096 0
-472 -1085 -1097 0
-473 -1082 -1098 0
-473 -1083 -1099 0
-473 -1084 -1100 0
-473 -1085 -1101 0
-474 -1082 -1102 0
-474 -1083 -1103 0
-474 -1084 -1104 0
-474 -1085 -1105 0
-475 -1082 -1106 0
-475 -1083 -1107 0
-475 -1084 -1108 0
-475 -1085 -1109 0
-476 -1082 -1110 0
-476 -1083 -1111 0
-476 -1084 -1112 0
-476 -1085 -1113 0
-477 -1082 -1114 0
-477 -1083 -1115 0
-477 -1084 -1116 0
-477 -1085 -1117 0
-478 -1082 -1118 0
-478 -1083 -1119 0
-478 -1084 -1120 0
-478 -1085 -1121 0
-479 -1082 -1122 0
-479 -1083 -1123 0
-479 -1084 -1124 0
-479 -1085 -1125 0
-480 -1082 -1126 0
-480 -1083 -1127 0
-480 -1084 -1128 0
-480 -1085 -1129 0
-481 -1082 -1130 0
-481 -1083 -1131 0
-481 -1084 -1132 0
-481 -1085 -1133 0
-482 -1082 -1134 0
-482 -1083 -1135 0
-482 -1084 -1136 0
-482 -1085 -1137 0
-483 -1082 -1138 0
-483 -1083 -1139 0
-483 -1084 -1140 0
-483 -1085 -1141 0
-484 -1082 -1142 0
-484 -1083 -1143 0
-484 -1084 -1144 0
-484 -1085 -1145 0
-485 -1082 -1146 0
-485 -1083 -1147 0
-485 -1084 -1148 0
-485 -1085 -1149 0
-486 -1082 -1150 0
-486 -1083 -1151 0
-486 -1084 -1152 0
-486 -1085 -1153 0
-487 -1082 -1154 0
-487 -1083 -1155 0
-487 -1084 -1156 0
-487 -1085 -1157 0
-488 -1082 -1158 0
-488 -1083 -1159 0
-488 -1084 -1160 0
-488 -1085 -1161 0
-489 -1082 -1162 0
-489 -1083 -1163 0
-489 -1084 -1164 0
-489 -1085 -1165 0
-490 -1082 -1166 0
-490 -1083 -1167 0
-490 -1084 -1168 0
-490 -1085 -1169 0
-491 -1082 -1170 0
-491 -1083 -1171 0
-491 -1084 -1172 0
-491 -1085 -1173 0
-492 -1082 -1174 0
-492 -1083 -1175 0
-492 -1084 -1176 0
-492 -1085 -1177 0
-493 -1082 -1178 0
-493 -1083 -1179 0
-493 -1084 -1180 0
-493 -1085 -1181 0
-494 -1082 -1182 0
-494 -1083 -1183 0
-494 -1084 -1184 0
-494 -1085 -1185 0
-495 -1082 -1186 0
-495 -1083 -1187 0
-495 -1084 -1188 0
-495 -1085 -1189 0
-496 -1086 -1090 0
-496 -1087 -1091 0
-496 -1088 -1092 0
-496 -1089 -1093 0
-497 -1086 -1094 0
-497 -1087 -1095 0
-497 -1088 -1096 0
-497 -1089 -1097 0
-498 -1086 -1098 0
-498 -1087 -1099 0
-498 -1088 -1100 0
-498 -1089 -1101 0
-499 -1086 -1102 0
-499 -1087 -1103 0
-499 -1088 -1104 0
-499 -1089 -1105 0
-500 -1086 -1106 0
-500 -1087 -1107 0
-500 -1088 -1108 0
-500 -1089 -1109 0
-501 -1086 -1110 0
-501 -1087 -1111 0
-501 -1088 -1112 0
-501 -1089 -1113 0
-502 -1086 -1114 0
-502 -1087 -1115 0
-502 -1088 -1116 0
-502 -1089 -1117 0
-503 -1086 -1118 0
-503 -1087 -1119 0
-503 -1088 -1120 0
-503 -1089 -1121 0
-504 -1086 -1122 0
-504 -1087 -1123 0
-504 -1088 -1124 0
-504 -1089 -1125 0
-505 -1086 -1126 0
-505 -1087 -1127 0
-505 -1088 -1128 0
-505 -1089 -1129 0
-506 -1086 -1130 0
-506 -1087 -1131 0
-506 -1088 -1132 0
-506 -1089 -1133 0
-507 -1086 -1134 0
-507 -1087 -1135 0
-507 -1088 -1136 0
-507 -1089 -1137 0
-508 -1086 -1138 0
-508 -1087 -1139 0
-508 -1088 -1140 0
-508 -1089 -1141 0
-509 -1086 -1142 0
-509 -1087 -1143 0
-509 -1088 -1144 0
-509 -1089 -1145 0
-510 -1086 -1146 0
-510 -1087 -1147 0
-510 -1088 -1148 0
-510 -1089 -1149 0
-511 -1086 -1150 0
-511 -1087 -1151 0
-511 -1088 -1152 0
-511 -1089 -1153 0
-512 -1086 -1154 0
-512 -1087 -1155 0
-512 -1088 -1156 0
-512 -1089 -1157 0
-513 -1086 -1158 0
-513 -1087 -1159 0
-513 -1088 -1160 0
-513 -1089 -1161 0
-514 -1086 -1162 0
-514 -1087 -1163 0
-514 -1088 -1164 0
-514 -1089 -1165 0
-515 -1086 -1166 0
-515 -1087 -1167 0
-515 -1088 -1168 0
-515 -1089 -1169 0
-516 -1086 -1170 0
-516 -1087 -1171 0
-516 -1088 -1172 0
-516 -1089 -1173 0
-517 -1086 -1174 0
-517 -1087 -1175 0
-517 -1088 -1176 0
-517 -1089 -1177 0
-518 -1086 -1178 0
-518 -1087 -1179 0
-518 -1088 -1180 0
-518 -1089 -1181 0
-519 -1086 -1182 0
-519 -1087 -1183 0
-519 -1088 -1184 0
-519 -1089 -1185 0
-520 -1086 -1186 0
-520 -1087 -1187 0
-520 -1088 -1188 0
-520 -1089 -1189 0
-521 -1090 -1094 0
-521 -1091 -1095 0
-521 -1092 -1096 0
-521 -1093 -1097 0
-522 -1090 -1098 0
-522 -1091 -1099 0
-522 -1092 -1100 0
-522 -1093 -1101 0
-523 -1090 -1102 0
-523 -1091 -1103 0
-523 -1092 -1104 0
-523 -1093 -1105 0
-524 -1090 -1106 0
-524 -1091 -1107 0
-524 -1092 -1108 0
-524 -1093 -1109 0
-525 -1090 -1110 0
-525 -1091 -1111 0
-525 -1092 -1112 0
-525 -1093 -1113 0
-526 -1090 -1114 0
-526 -1091 -1115 0
-526 -1092 -1116 0
-526 -1093 -1117 0
-527 -1090 -1118 0
-527 -1091 -1119 0
-527 -1092 -1120 0
-527 -1093 -1121 0
-528 -1090 -1122 0
-528 -1091 -1123 0
-528 -1092 -1124 0
-528 -1093 -1125 0
-529 -1090 -1126 0
-529 -1091 -1127 0
-529 -1092 -1128 0
-529 -1093 -1129 0
-530 -1090 -1130 0
-530 -1091 -1131 0
-530 -1092 -1132 0
-530 -1093 -1133 0
-531 -1090 -1134 0
-531 -1091 -1135 0
-531 -1092 -1136 0
-531 -1093 -1137 0
-532 -1090 -1138 0
-532 -1091 -1139 0
-532 -1092 -1140 0
-532 -1093 -1141 0
-533 -1090 -1142 0
-533 -1091 -1143 0
-533 -1092 -1144 0
-533 -1093 -1145 0
-534 -1090 -1146 0
-534 -1091 -1147 0
-534 -1092 -1148 0
-534 -1093 -1149 0
-535 -1090 -1150 0
-535 -1091 -1151 0
-535 -1092 -1152 0
-535 -1093 -1153 0
-536 -1090 -1154 0
-536 -1091 -1155 0
-536 -1092 -1156 0
-536 -1093 -1157 0
-537 -1090 -1158 0
-537 -1091 -1159 0
-537 -1092 -1160 0
-537 -1093 -1161 0
-538 -1090 -1162 0
-538 -1091 -1163 0
-538 -1092 -1164 0
-538 -1093 -1165 0
-539 -1090 -1166 0
-539 -1091 -1167 0
-539 -1092 -1168 0
-539 -1093 -1169 0
-540 -1090 -1170 0
-540 -1091 -1171 0
-540 -1092 -1172 0
-540 -1093 -1173 0
-541 -1090 -1174 0
-541 -1091 -1175 0
-541 -1092 -1176 0
-541 -1093 -1177 0
-542 -1090 -1178 0
-542 -1091 -1179 0
-542 -1092 -1180 0
-542 -1093 -1181 0
-543 -1090 -1182 0
-543 -1091 -1183 0
-543 -1092 -1184 0
-543 -1093 -1185 0
-544 -1090 -1186 0
-544 -1091 -1187 0
-544 -1092 -1188 0
-544 -1093 -1189 0
-545 -1094 -1098 0
-545 -1095 -1099 0
-545 -1096 -1100 0
-545 -1097 -1101 0
-546 -1094 -1102 0
-546 -1095 -1103 0
-546 -1096 -1104 0
-546 -1097 -1105 0
-547 -1094 -1106 0
-547 -1095 -1107 0
-547 -1096 -1108 0
-547 -1097 -1109 0
-548 -1094 -1110 0
-548 -1095 -1111 0
-548 -1096 -1112 0
-548 -1097 -1113 0
-549 -1094 -1114 0
-549 -1095 -1115 0
-549 -1096 -1116 0
-549 -1097 -1117 0
-550 -1094 -1118 0
-550 -1095 -1119 0
-550 -1096 -1120 0
-550 -1097 -1121 0
-551 -1094 -1122 0
-551 -1095 -1123 0
-551 -1096 -1124 0
-551 -1097 -1125 0
-552 -1094 -1126 0
-552 -1095 -1127 0
-552 -1096 -1128 0
-552 -1097 -1129 0
-553 -1094 -1130 0
-553 -1095 -1131 0
-553 -1096 -1132 0
-553 -1097 -1133 0
-554 -1094 -1134 0
-554 -1095 -1135 0
-554 -1096 -1136 0
-554 -1097 -1137 0
-555 -1094 -1138 0
-555 -1095 -1139 0
-555 -1096 -1140 0
-555 -1097 -1141 0
-556 -1094 -1142 0
-556 -1095 -1143 0
-556 -1096 -1144 0
-556 -1097 -1145 0
-557 -1094 -1146 0
-557 -1095 -1147 0
-557 -1096 -1148 0
-557 -1097 -1149 0
-558 -1094 -1150 0
-558 -1095 -1151 0
-558 -1096 -1152 0
-558 -1097 -1153 0
-559 -1094 -1154 0
-559 -1095 -1155 0
-559 -1096 -1156 0
-559 -1097 -1157 0
-560 -1094 -1158 0
-560 -1095 -1159 0
-560 -1096 -1160 0
-560 -1097 -1161 0
-561 -1094 -1162 0
-561 -1095 -1163 0
-561 -1096 -1164 0
-561 -1097 -1165 0
-562 -1094 -1166 0
-562 -1095 -1167 0
-562 -1096 -1168 0
-562 -1097 -1169 0
-563 -1094 -1170 0
-563 -1095 -1171 0
-563 -1096 -1172 0
-563 -1097 -1173 0
-564 -1094 -1174 0
-564 -1095 -1175 0
-564 -1096 -1176 0
-564 -1097 -1177 0
-565 -1094 -1178 0
-565 -1095 -1179 0
-565 -1096 -1180 0
-565 -1097 -1181 0
-566 -1094 -1182 0
-566 -1095 -1183 0
-566 -1096 -1184 0
-566 -1097 -1185 0
-567 -1094 -1186 0
-567 -1095 -1187 0
-567 -1096 -1188 0
-567 -1097 -1189 0
-568 -1098 -1102 0
-568 -1099 -1103 0
-568 -1100 -1104 0
-568 -1101 -1105 0
-569 -1098 -1106 0
-569 -1099 -1107 0
-569 -1100 -1108 0
-569 -1101 -1109 0
-570 -1098 -1110 0
-570 -1099 -1111 0
-570 -1100 -1112 0
-570 -1101 -1113 0
-571 -1098 -1114 0
-571 -1099 -1115 0
-571 -1100 -1116 0
-571 -1101 -1117 0
-572 -1098 -1118 0
-572 -1099 -1119 0
-572 -1100 -1120 0
-572 -1101 -1121 0
-573 -1098 -1122 0
-573 -1099 -1123 0
-573 -1100 -1124 0
-573 -1101 -1125 0
-574 -1098 -1126 0
-574 -1099 -1127 0
-574 -1100 -1128 0
-574 -1101 -1129 0
-575 -1098 -1130 0
-575 -1099 -1131 0
-575 -1100 -1132 0
-575 -1101 -1133 0
-576 -1098 -1134 0
-576 -1099 -1135 0
-576 -1100 -1136 0
-576 -1101 -1137 0
-577 -1098 -1138 0
-577 -1099 -1139 0
-577 -1100 -1140 0
-577 -1101 -1141 0
-578 -1098 -1142 0
-578 -1099 -1143 0
-578 -1100 -1144 0
-578 -1101 -1145 0
-579 -1098 -1146 0
-579 -1099 -1147 0
-579 -1100 -1148 0
-579 -1101 -1149 0
-580 -1098 -1150 0
-580 -1099 -1151 0
-580 -1100 -1152 0
-580 -1101 -1153 0
-581 -1098 -1154 0
-581 -1099 -1155 0
-581 -1100 -1156 0
-581 -1101 -1157 0
-582 -1098 -1158 0
-582 -1099 -1159 0
-582 -1100 -1160 0
-582 -1101 -1161 0
-583 -1098 -1162 0
-583 -1099 -1163 0
-583 -1100 -1164 0
-583 -1101 -1165 0
-584 -1098 -1166 0
-584 -1099 -1167 0
-584 -1100 -1168 0
-584 -1101 -1169 0
-585 -1098 -1170 0
-585 -1099 -1171 0
-585 -1100 -1172 0
-585 -1101 -1173 0
-586 -1098 -1174 0
-586 -1099 -1175 0
-586 -1100 -1176 0
-586 -1101 -1177 0
-587 -1098 -1178 0
-587 -1099 -1179 0
-587 -1100 -1180 0
-587 -1101 -1181 0
-588 -1098 -1182 0
-588 -1099 -1183 0
-588 -1100 -1184 0
-588 -1101 -1185 0
-589 -1098 -1186 0
-589 -1099 -1187 0
-589 -1100 -1188 0
-589 -1101 -1189 0
-590 -1102 -1106 0
-590 -1103 -1107 0
-590 -1104 -1108 0
-590 -1105 -1109 0
-591 -1102 -1110 0
-591 -1103 -1111 0
-591 -1104 -1112 0
-591 -1105 -1113 0
-592 -1102 -1114 0
-592 -1103 -1115 0
-592 -1104 -1116 0
-592 -1105 -1117 0
-593 -1102 -1118 0
-593 -1103 -1119 0
-593 -1104 -1120 0
-593 -1105 -1121 0
-594 -1102 -1122 0
-594 -1103 -1123 0
-594 -1104 -1124 0
-594 -1105 -1125 0
-595 -1102 -1126 0
-595 -1103 -1127 0
-595 -1104 -1128 0
-595 -1105 -1129 0
-596 -1102 -1130 0
-596 -1103 -1131 0
-596 -1104 -1132 0
-596 -1105 -1133 0
-597 -1102 -1134 0
-597 -1103 -1135 0
-597 -1104 -1136 0
-597 -1105 -1137 0
-598 -1102 -1138 0
-598 -1103 -1139 0
-598 -1104 -1140 0
-598 -1105 -1141 0
-599 -1102 -1142 0
-599 -1103 -1143 0
-599 -1104 -1144 0
-599 -1105 -1145 0
-600 -1102 -1146 0
-600 -1103 -1147 0
-600 -1104 -1148 0
-600 -1105 -1149 0
-601 -1102 -1150 0
-601 -1103 -1151 0
-601 -1104 -1152 0
-601 -1105 -1153 0
-602 -1102 -1154 0
-602 -1103 -1155 0
-602 -1104 -1156 0
-602 -1105 -1157 0
-603 -1102 -1158 0
-603 -1103 -1159 0
-603 -1104 -1160 0
-603 -1105 -1161 0
-604 -1102 -1162 0
-604 -1103 -1163 0
-604 -1104 -1164 0
-604 -1105 -1165 0
-605 -1102 -1166 0
-605 -1103 -1167 0
-605 -1104 -1168 0
-605 -1105 -1169 0
-606 -1102 -1170 0
-606 -1103 -1171 0
-606 -1104 -1172 0
-606 -1105 -1173 0
-607 -1102 -1174 0
-607 -1103 -1175 0
-607 -1104 -1176 0
-607 -1105 -1177 0
-608 -1102 -1178 0
-608 -1103 -1179 0
-608 -1104 -1180 0
-608 -1105 -1181 0
-609 -1102 -1182 0
-609 -1103 -1183 0
-609 -1104 -1184 0
-609 -1105 -1185 0
-610 -1102 -1186 0
-610 -1103 -1187 0
-610 -1104 -1188 0
-610 -1105 -1189 0
-611 -1106 -1110 0
-611 -1107 -1111 0
-611 -1108 -1112 0
-611 -1109 -1113 0
-612 -1106 -1114 0
-612 -1107 -1115 0
-612 -1108 -1116 0
-612 -1109 -1117 0
-613 -1106 -1118 0
-613 -1107 -1119 0
-613 -1108 -1120 0
-613 -1109 -1121 0
-614 -1106 -1122 0
-614 -1107 -1123 0
-614 -1108 -1124 0
-614 -1109 -1125 0
-615 -1106 -1126 0
-615 -1107 -1127 0
-615 -1108 -1128 0
-615 -1109 -1129 0
-616 -1106 -1130 0
-616 -1107 -1131 0
-616 -1108 -1132 0
-616 -1109 -1133 0
-617 -1106 -1134 0
-617 -1107 -1135 0
-617 -1108 -1136 0
-617 -1109 -1137 0
-618 -1106 -1138 0
-618 -1107 -1139 0
-618 -1108 -1140 0
-618 -1109 -1141 0
-619 -1106 -1142 0
-619 -1107 -1143 0
-619 -1108 -1144 0
-619 -1109 -1145 0
-620 -1106 -1146 0
-620 -1107 -1147 0
-620 -1108 -1148 0
-620 -1109 -1149 0
-621 -1106 -1150 0
-621 -1107 -1151 0
-621 -1108 -1152 0
-621 -1109 -1153 0
-622 -1106 -1154 0
-622 -1107 -1155 0
-622 -1108 -1156 0
-622 -1109 -1157 0
-623 -1106 -1158 0
-623 -1107 -1159 0
-623 -1108 -1160 0
-623 -1109 -1161 0
-624 -1106 -1162 0
-624 -1107 -1163 0
-624 -1108 -1164 0
-624 -1109 -1165 0
-625 -1106 -1166 0
-625 -1107 -1167 0
-625 -1108 -1168 0
-625 -1109 -1169 0
-626 -1106 -1170 0
-626 -1107 -1171 0
-626 -1108 -1172 0
-626 -1109 -1173 0
-627 -1106 -1174 0
-627 -1107 -1175 0
-627 -1108 -1176 0
-627 -1109 -1177 0
-628 -1106 -1178 0
-628 -1107 -1179 0
-628 -1108 -1180 0
-628 -1109 -1181 0
-629 -1106 -1182 0
-629 -1107 -1183 0
-629 -1108 -1184 0
-629 -1109 -1185 0
-630 -1106 -1186 0
-630 -1107 -1187 0
-630 -1108 -1188 0
-630 -1109 -1189 0
-631 -1110 -1114 0
-631 -1111 -1115 0
-631 -1112 -1116 0
-631 -1113 -1117 0
-632 -1110 -1118 0
-632 -1111 -1119 0
-632 -1112 -1120 0
-632 -1113 -1121 0
-633 -1110 -1122 0
-633 -1111 -1123 0
-633 -1112 -1124 0
-633 -1113 -1125 0
-634 -1110 -1126 0
-634 -1111 -1127 0
-634 -1112 -1128 0
-634 -1113 -1129 0
-635 -1110 -1130 0
-635 -1111 -1131 0
-635 -1112 -1132 0
-635 -1113 -1133 0
-636 -1110 -1134 0
-636 -1111 -1135 0
-636 -1112 -1136 0
-636 -1113 -1137 0
-637 -1110 -1138 0
-637 -1111 -1139 0
-637 -1112 -1140 0
-637 -1113 -1141 0
-638 -1110 -1142 0
-638 -1111 -1143 0
-638 -1112 -1144 0
-638 -1113 -1145 0
-639 -1110 -1146 0
-639 -1111 -1147 0
-639 -1112 -1148 0
-639 -1113 -1149 0
-640 -1110 -1150 0
-640 -1111 -1151 0
-640 -1112 -1152 0
-640 -1113 -1153 0
-641 -1110 -1154 0
-641 -1111 -1155 0
-641 -1112 -1156 0
-641 -1113 -1157 0
-642 -1110 -1158 0
-642 -1111 -1159 0
-642 -1112 -1160 0
-642 -1113 -1161 0
-643 -1110 -1162 0
-643 -1111 -1163 0
-643 -1112 -1164 0
-643 -1113 -1165 0
-644 -1110 -1166 0
-644 -1111 -1167 0
-644 -1112 -1168 0
-644 -1113 -1169 0
-645 -1110 -1170 0
-645 -1111 -1171 0
-645 -1112 -1172 0
-645 -1113 -1173 0
-646 -1110 -1174 0
-646 -1111 -1175 0
-646 -1112 -1176 0
-646 -1113 -1177 0
-647 -1110 -1178 0
-647 -1111 -1179 0
-647 -1112 -1180 0
-647 -1113 -1181 0
-648 -1110 -1182 0
-648 -1111 -1183 0
-648 -1112 -1184 0
-648 -1113 -1185 0
-649 -1110 -1186 0
-649 -1111 -1187 0
-649 -1112 -1188 0
-649 -1113 -1189 0
-650 -1114 -1118 0
-650 -1115 -1119 0
-650 -1116 -1120 0
-650 -1117 -1121 0
-651 -1114 -1122 0
-651 -1115 -1123 0
-651 -1116 -1124 0
-651 -1117 -1125 0
-652 -1114 -1126 0
-652 -1115 -1127 0
-652 -1116 -1128 0
-652 -1117 -1129 0
-653 -1114 -1130 0
-653 -1115 -1131 0
-653 -1116 -1132 0
-653 -1117 -1133 0
-654 -1114 -1134 0
-654 -1115 -1135 0
-654 -1116 -1136 0
-654 -1117 -1137 0
-655 -1114 -1138 0
-655 -1115 -1139 0
-655 -1116 -1140 0
-655 -1117 -1141 0
-656 -1114 -1142 0
-656 -1115 -1143 0
-656 -1116 -1144 0
-656 -1117 -1145 0
-657 -1114 -1146 0
-657 -1115 -1147 0
-657 -1116 -1148 0
-657 -1117 -1149 0
-658 -1114 -1150 0
-658 -1115 -1151 0
-658 -1116 -1152 0
-658 -1117 -1153 0
-659 -1114 -1154 0
-659 -1115 -1155 0
-659 -1116 -1156 0
-659 -1117 -1157 0
-660 -1114 -1158 0
-660 -1115 -1159 0
-660 -1116 -1160 0
-660 -1117 -1161 0
-661 -1114 -1162 0
-661 -1115 -1163 0
-661 -1116 -1164 0
-661 -1117 -1165 0
-662 -1114 -1166 0
-662 -1115 -1167 0
-662 -1116 -1168 0
-662 -1117 -1169 0
-663 -1114 -1170 0
-663 -1115 -1171 0
-663 -1116 -1172 0
-663 -1117 -1173 0
-664 -1114 -1174 0
-664 -1115 -1175 0
-664 -1116 -1176 0
-664 -1117 -1177 0
-665 -1114 -1178 0
-665 -1115 -1179 0
-665 -1116 -1180 0
-665 -1117 -1181 0
-666 -1114 -1182 0
-666 -1115 -1183 0
-666 -1116 -1184 0
-666 -1117 -1185 0
-667 -1114 -1186 0
-667 -1115 -1187 0
-667 -1116 -1188 0
-667 -1117 -1189 0
-668 -1118 -1122 0
-668 -1119 -1123 0
-668 -1120 -1124 0
-668 -1121 -1125 0
-669 -1118 -1126 0
-669 -1119 -1127 0
-669 -1120 -1128 0
-669 -1121 -1129 0
-670 -1118 -1130 0
-670 -1119 -1131 0
-670 -1120 -1132 0
-670 -1121 -1133 0
-671 -1118 -1134 0
-671 -1119 -1135 0
-671 -1120 -1136 0
-671 -1121 -1137 0
-672 -1118 -1138 0
-672 -1119 -1139 0
-672 -1120 -1140 0
-672 -1121 -1141 0
-673 -1118 -1142 0
-673 -1119 -1143 0
-673 -1120 -1144 0
-673 -1121 -1145 0
-674 -1118 -1146 0
-674 -1119 -1147 0
-674 -1120 -1148 0
-674 -1121 -1149 0
-675 -1118 -1150 0
-675 -1119 -1151 0
-675 -1120 -1152 0
-675 -1121 -1153 0
-676 -1118 -1154 0
-676 -1119 -1155 0
-676 -1120 -1156 0
-676 -1121 -1157 0
-677 -1118 -1158 0
-677 -1119 -1159 0
-677 -1120 -1160 0
-677 -1121 -1161 0
-678 -1118 -1162 0
-678 -1119 -1163 0
-678 -1120 -1164 0
-678 -1121 -1165 0
-679 -1118 -1166 0
-679 -1119 -1167 0
-679 -1120 -1168 0
-679 -1121 -1169 0
-680 -1118 -1170 0
-680 -1119 -1171 0
-680 -1120 -1172 0
-680 -1121 -1173 0
-681 -1118 -1174 0
-681 -1119 -1175 0
-681 -1120 -1176 0
-681 -1121 -1177 0
-682 -1118 -1178 0
-682 -1119 -1179 0
-682 -1120 -1180 0
-682 -1121 -1181 0
-683 -1118 -1182 0
-683 -1119 -1183 0
-683 -1120 -1184 0
-683 -1121 -1185 0
-684 -1118 -1186 0
-684 -1119 -1187 0
-684 -1120 -1188 0
-684 -1121 -1189 0
-685 -1122 -1126 0
-685 -1123 -1127 0
-685 -1124 -1128 0
-685 -1125 -1129 0
-686 -1122 -1130 0
-686 -1123 -1131 0
-686 -1124 -1132 0
-686 -1125 -1133 0
-687 -1122 -1134 0
-687 -1123 -1135 0
-687 -1124 -1136 0
-687 -1125 -1137 0
-688 -1122 -1138 0
-688 -1123 -1139 0
-688 -1124 -1140 0
-688 -1125 -1141 0
-689 -1122 -1142 0
-689 -1123 -1143 0
-689 -1124 -1144 0
-689 -1125 -1145 0
-690 -1122 -1146 0
-690 -1123 -1147 0
-690 -1124 -1148 0
-690 -1125 -1149 0
-691 -1122 -1150 0
-691 -1123 -1151 0
-691 -1124 -1152 0
-691 -1125 -1153 0
-692 -1122 -1154 0
-692 -1123 -1155 0
-692 -1124 -1156 0
-692 -1125 -1157 0
-693 -1122 -1158 0
-693 -1123 -1159 0
-693 -1124 -1160 0
-693 -1125 -1161 0
-694 -1122 -1162 0
-694 -1123 -1163 0
-694 -1124 -1164 0
-694 -1125 -1165 0
-695 -1122 -1166 0
-695 -1123 -1167 0
-695 -1124 -1168 0
-695 -1125 -1169 0
-696 -1122 -1170 0
-696 -1123 -1171 0
-696 -1124 -1172 0
-696 -1125 -1173 0
-697 -1122 -1174 0
-697 -1123 -1175 0
-697 -1124 -1176 0
-697 -1125 -1177 0
-698 -1122 -1178 0
-698 -1123 -1179 0
-698 -1124 -1180 0
-698 -1125 -1181 0
-699 -1122 -1182 0
-699 -1123 -1183 0
-699 -1124 -1184 0
-699 -1125 -1185 0
-700 -1122 -1186 0
-700 -1123 -1187 0
-700 -1124 -1188 0
-700 -1125 -1189 0
-701 -1126 -1130 0
-701 -1127 -1131 0
-701 -1128 -1132 0
-701 -1129 -1133 0
-702 -1126 -1134 0
-702 -1127 -1135 0
-702 -1128 -1136 0
-702 -1129 -1137 0
-703 -1126 -1138 0
-703 -1127 -1139 0
-703 -1128 -1140 0
-703 -1129 -1141 0
-704 -1126 -1142 0
-704 -1127 -1143 0
-704 -1128 -1144 0
-704 -1129 -1145 0
-705 -1126 -1146 0
-705 -1127 -1147 0
-705 -1128 -1148 0
-705 -1129 -1149 0
-706 -1126 -1150 0
-706 -1127 -1151 0
-706 -1128 -1152 0
-706 -1129 -1153 0
-707 -1126 -1154 0
-707 -1127 -1155 0
-707 -1128 -1156 0
-707 -1129 -1157 0
-708 -1126 -1158 0
-708 -1127 -1159 0
-708 -1128 -1160 0
-708 -1129 -1161 0
-709 -1126 -1162 0
-709 -1127 -1163 0
-709 -1128 -1164 0
-709 -1129 -1165 0
-710 -1126 -1166 0
-710 -1127 -1167 0
-710 -1128 -1168 0
-710 -1129 -1169 0
-711 -1126 -1170 0
-711 -1127 -1171 0
-711 -1128 -1172 0
-711 -1129 -1173 0
-712 -1126 -1174 0
-712 -1127 -1175 0
-712 -1128 -1176 0
-712 -1129 -1177 0
-713 -1126 -1178 0
-713 -1127 -1179 0
-713 -1128 -1180 0
-713 -1129 -1181 0
-714 -1126 -1182 0
-714 -1127 -1183 0
-714 -1128 -1184 0
-714 -1129 -1185 0
-715 -1126 -1186 0
-715 -1127 -1187 0
-715 -1128 -1188 0
-715 -1129 -1189 0
-716 -1130 -1134 0
-716 -1131 -1135 0
-716 -1132 -1136 0
-716 -1133 -1137 0
-717 -1130 -1138 0
-717 -1131 -1139 0
-717 -1132 -1140 0
-717 -1133 -1141 0
-718 -1130 -1142 0
-718 -1131 -1143 0
-718 -1132 -1144 0
-718 -1133 -1145 0
-719 -1130 -1146 0
-719 -1131 -1147 0
-719 -1132 -1148 0
-719 -1133 -1149 0
-720 -1130 -1150 0
-720 -1131 -1151 0
-720 -1132 -1152 0
-720 -1133 -1153 0
-721 -1130 -1154 0
-721 -1131 -1155 0
-721 -1132 -1156 0
-721 -1133 -1157 0
-722 -1130 -1158 0
-722 -1131 -1159 0
-722 -1132 -1160 0
-722 -1133 -1161 0
-723 -1130 -1162 0
-723 -1131 -1163 0
-723 -1132 -1164 0
-723 -1133 -1165 0
-724 -1130 -1166 0
-724 -1131 -1167 0
-724 -1132 -1168 0
-724 -1133 -1169 0
-725 -1130 -1170 0
-725 -1131 -1171 0
-725 -1132 -1172 0
-725 -1133 -1173 0
-726 -1130 -1174 0
-726 -1131 -1175 0
-726 -1132 -1176 0
-726 -1133 -1177 0
-727 -1130 -1178 0
-727 -1131 -1179 0
-727 -1132 -1180 0
-727 -1133 -1181 0
-728 -1130 -1182 0
-728 -1131 -1183 0
-728 -1132 -1184 0
-728 -1133 -1185 0
-729 -1130 -1186 0
-729 -1131 -1187 0
-729 -1132 -1188 0
-729 -1133 -1189 0
-730 -1134 -1138 0
-730 -1135 -1139 0
-730 -1136 -1140 0
-730 -1137 -1141 0
-731 -1134 -1142 0
-731 -1135 -1143 0
-731 -1136 -1144 0
-731 -1137 -1145 0
-732 -1134 -1146 0
-732 -1135 -1147 0
-732 -1136 -1148 0
-732 -1137 -1149 0
-733 -1134 -1150 0
-733 -1135 -1151 0
-733 -1136 -1152 0
-733 -1137 -1153 0
-734 -1134 -1154 0
-734 -1135 -1155 0
-734 -1136 -1156 0
-734 -1137 -1157 0
-735 -1134 -1158 0
-735 -1135 -1159 0
-735 -1136 -1160 0
-735 -1137 -1161 0
-736 -1134 -1162 0
-736 -1135 -1163 0
-736 -1136 -1164 0
-736 -1137 -1165 0
-737 -1134 -1166 0
-737 -1135 -1167 0
-737 -1136 -1168 0
-737 -1137 -1169 0
-738 -1134 -1170 0
-738 -1135 -1171 0
-738 -1136 -1172 0
-738 -1137 -1173 0
-739 -1134 -1174 0
-739 -1135 -1175 0
-739 -1136 -1176 0
-739 -1137 -1177 0
-740 -1134 -1178 0
-740 -1135 -1179 0
-740 -1136 -1180 0
-740 -1137 -1181 0
-741 -1134 -1182 0
-741 -1135 -1183 0
-741 -1136 -1184 0
-741 -1137 -1185 0
-742 -1134 -1186 0
-742 -1135 -1187 0
-742 -1136 -1188 0
-742 -1137 -1189 0
-743 -1138 -1142 0
-743 -1139 -1143 0
-743 -1140 -1144 0
-743 -1141 -1145 0
-744 -1138 -1146 0
-744 -1139 -1147 0
-744 -1140 -1148 0
-744 -1141 -1149 0
-745 -1138 -1150 0
-745 -1139 -1151 0
-745 -1140 -1152 0
-745 -1141 -1153 0
-746 -1138 -1154 0
-746 -1139 -1155 0
-746 -1140 -1156 0
-746 -1141 -1157 0
-747 -1138 -1158 0
-747 -1139 -1159 0
-747 -1140 -1160 0
-747 -1141 -1161 0
-748 -1138 -1162 0
-748 -1139 -1163 0
-748 -1140 -1164 0
-748 -1141 -1165 0
-749 -1138 -1166 0
-749 -1139 -1167 0
-749 -1140 -1168 0
-749 -1141 -1169 0
-750 -1138 -1170 0
-750 -1139 -1171 0
-750 -1140 -1172 0
-750 -1141 -1173 0
-751 -1138 -1174 0
-751 -1139 -1175 0
-751 -1140 -1176 0
-751 -1141 -1177 0
-752 -1138 -1178 0
-752 -1139 -1179 0
-752 -1140 -1180 0
-752 -1141 -1181 0
-753 -1138 -1182 0
-753 -1139 -1183 0
-753 -1140 -1184 0
-753 -1141 -1185 0
-754 -1138 -1186 0
-754 -1139 -1187 0
-754 -1140 -1188 0
-754 -1141 -1189 0
-755 -1142 -1146 0
-755 -1143 -1147 0
-755 -1144 -1148 0
-755 -1145 -1149 0
-756 -1142 -1150 0
-756 -1143 -1151 0
-756 -1144 -1152 0
-756 -1145 -1153 0
-757 -1142 -1154 0
-757 -1143 -1155 0
-757 -1144 -1156 0
-757 -1145 -1157 0
-758 -1142 -1158 0
-758 -1143 -1159 0
-758 -1144 -1160 0
-758 -1145 -1161 0
-759 -1142 -1162 0
-759 -1143 -1163 0
-759 -1144 -1164 0
-759 -1145 -1165 0
-760 -1142 -1166 0
-760 -1143 -1167 0
-760 -1144 -1168 0
-760 -1145 -1169 0
-761 -1142 -1170 0
-761 -1143 -1171 0
-761 -1144 -1172 0
-761 -1145 -1173 0
-762 -1142 -1174 0
-762 -1143 -1175 0
-762 -1144 -1176 0
-762 -1145 -1177 0
-763 -1142 -1178 0
-763 -1143 -1179 0
-763 -1144 -1180 0
-763 -1145 -1181 0
-764 -1142 -1182 0
-764 -1143 -1183 0
-764 -1144 -1184 0
-764 -1145 -1185 0
-765 -1142 -1186 0
-765 -1143 -1187 0
-765 -1144 -1188 0
-765 -1145 -1189 0
-766 -1146 -1150 0
-766 -1147 -1151 0
-766 -1148 -1152 0
-766 -1149 -1153 0
-767 -1146 -1154 0
-767 -1147 -1155 0
-767 -1148 -1156 0
-767 -1149 -1157 0
-768 -1146 -1158 0
-768 -1147 -1159 0
-768 -1148 -1160 0
-768 -1149 -1161 0
-769 -1146 -1162 0
-769 -1147 -1163 0
-769 -1148 -1164 0
-769 -1149 -1165 0
-770 -1146 -1166 0
-770 -1147 -1167 0
-770 -1148 -1168 0
-770 -1149 -1169 0
-771 -1146 -1170 0
-771 -1147 -1171 0
-771 -1148 -1172 0
-771 -1149 -1173 0
-772 -1146 -1174 0
-772 -1147 -1175 0
-772 -1148 -1176 0
-772 -1149 -1177 0
-773 -1146 -1178 0
-773 -1147 -1179 0
-773 -1148 -1180 0
-773 -1149 -1181 0
-774 -1146 -1182 0
-774 -1147 -1183 0
-774 -1148 -1184 0
-774 -1149 -1185 0
-775 -1146 -1186 0
-775 -1147 -1187 0
-775 -1148 -1188 0
-775 -1149 -1189 0
-776 -1150 -1154 0
-776 -1151 -1155 0
-776 -1152 -1156 0
-776 -1153 -1157 0
-777 -1150 -1158 0
-777 -1151 -1159 0
-777 -1152 -1160 0
-777 -1153 -1161 0
-778 -1150 -1162 0
-778 -1151 -1163 0
-778 -1152 -1164 0
-778 -1153 -1165 0
-779 -1150 -1166 0
-779 -1151 -1167 0
-779 -1152 -1168 0
-779 -1153 -1169 0
-780 -1150 -1170 0
-780 -1151 -1171 0
-780 -1152 -1172 0
-780 -1153 -1173 0
-781 -1150 -1174 0
-781 -1151 -1175 0
-781 -1152 -1176 0
-781 -1153 -1177 0
-782 -1150 -1178 0
-782 -1151 -1179 0
-782 -1152 -1180 0
-782 -1153 -1181 0
-783 -1150 -1182 0
-783 -1151 -1183 0
-783 -1152 -1184 0
-783 -1153 -1185 0
-784 -1150 -1186 0
-784 -1151 -1187 0
-784 -1152 -1188 0
-784 -1153 -1189 0
-785 -1154 -1158 0
-785 -1155 -1159 0
-785 -1156 -1160 0
-785 -1157 -1161 0
-786 -1154 -1162 0
-786 -1155 -1163 0
-786 -1156 -1164 0
-786 -1157 -1165 0
-787 -1154 -1166 0
-787 -1155 -1167 0
-787 -1156 -1168 0
-787 -1157 -1169 0
-788 -1154 -1170 0
-788 -1155 -1171 0
-788 -1156 -1172 0
-788 -1157 -1173 0
-789 -1154 -1174 0
-789 -1155 -1175 0
-789 -1156 -1176 0
-789 -1157 -1177 0
-790 -1154 -1178 0
-790 -1155 -1179 0
-790 -1156 -1180 0
-790 -1157 -1181 0
-791 -1154 -1182 0
-791 -1155 -1183 0
-791 -1156 -1184 0
-791 -1157 -1185 0
-792 -1154 -1186 0
-792 -1155 -1187 0
-792 -1156 -1188 0
-792 -1157 -1189 0
-793 -1158 -1162 0
-793 -1159 -1163 0
-793 -1160 -1164 0
-793 -1161 -1165 0
-794 -1158 -1166 0
-794 -1159 -1167 0
-794 -1160 -1168 0
-794 -1161 -1169 0
-795 -1158 -1170 0
-795 -1159 -1171 0
-795 -1160 -1172 0
-795 -1161 -1173 0
-796 -1158 -1174 0
-796 -1159 -1175 0
-796 -1160 -1176 0
-796 -1161 -1177 0
-797 -1158 -1178 0
-797 -1159 -1179 0
-797 -1160 -1180 0
-797 -1161 -1181 0
-798 -1158 -1182 0
-798 -1159 -1183 0
-798 -1160 -1184 0
-798 -1161 -1185 0
-799 -1158 -1186 0
-799 -1159 -1187 0
-799 -1160 -1188 0
-799 -1161 -1189 0
-800 -1162 -1166 0
-800 -1163 -1167 0
-800 -1164 -1168 0
-800 -1165 -1169 0
-801 -1162 -1170 0
-801 -1163 -1171 0
-801 -1164 -1172 0
-801 -1165 -1173 0
-802 -1162 -1174 0
-802 -1163 -1175 0
-802 -1164 -1176 0
-802 -1165 -1177 0
-803 -1162 -1178 0
-803 -1163 -1179 0
-803 -1164 -1180 0
-803 -1165 -1181 0
-804 -1162 -1182 0
-804 -1163 -1183 0
-804 -1164 -1184 0
-804 -1165 -1185 0
-805 -1162 -1186 0
-805 -1163 -1187 0
-805 -1164 -1188 0
-805 -1165 -1189 0
-806 -1166 -1170 0
-806 -1167 -1171 0
-806 -1168 -1172 0
-806 -1169 -1173 0
-807 -1166 -1174 0
-807 -1167 -1175 0
-807 -1168 -1176 0
-807 -1169 -1177 0
-808 -1166 -1178 0
-808 -1167 -1179 0
-808 -1168 -1180 0
-808 -1169 -1181 0
-809 -1166 -1182 0
-809 -1167 -1183 0
-809 -1168 -1184 0
-809 -1169 -1185 0
-810 -1166 -1186 0
-810 -1167 -1187 0
-810 -1168 -1188 0
-810 -1169 -1189 0
-811 -1170 -1174 0
-811 -1171 -1175 0
-811 -1172 -1176 0
-811 -1173 -1177 0
-812 -1170 -1178 0
-812 -1171 -1179 0
-812 -1172 -1180 0
-812 -1173 -1181 0
-813 -1170 -1182 0
-813 -1171 -1183 0
-813 -1172 -1184 0
-813 -1173 -1185 0
-814 -1170 -1186 0
-814 -1171 -1187 0
-814 -1172 -1188 0
-814 -1173 -1189 0
-815 -1174 -1178 0
-815 -1175 -1179 0
-815 -1176 -1180 0
-815 -1177 -1181 0
-816 -1174 -1182 0
-816 -1175 -1183 0
-816 -1176 -1184 0
-816 -1177 -1185 0
-817 -1174 -1186 0
-817 -1175 -1187 0
-817 -1176 -1188 0
-817 -1177 -1189 0
-818 -1178 -1182 0
-818 -1179 -1183 0
-818 -1180 -1184 0
-818 -1181 -1185 0
-819 -1178 -1186 0
-819 -1179 -1187 0
-819 -1180 -1188 0
-819 -1181 -1189 0
-820 -1182 -1186 0
-820 -1183 -1187 0
-820 -1184 -1188 0
-820 -1185 -1189 0
1190 0
-944 985 0
985 -1190 1191 0
-944 -1190 1191 0
-1191 -945 986 0
986 -1191 1192 0
-945 -1191 1192 0
-1192 -946 987 0
987 -1192 1193 0
-946 -1192 1193 0
-1193 -947 988 0
988 -1193 1194 0
-947 -1193 1194 0
-1194 -948 989 0
989 -1194 1195 0
-948 -1194 1195 0
-1195 -949 990 0
990 -1195 1196 0
-949 -1195 1196 0
-1196 -950 991 0
991 -1196 1197 0
-950 -1196 1197 0
-1197 -951 992 0
992 -1197 1198 0
-951 -1197 1198 0
-1198 -952 993 0
993 -1198 1199 0
-952 -1198 1199 0
-1199 -953 994 0
994 -1199 1200 0
-953 -1199 1200 0
-1200 -954 995 0
995 -1200 1201 0
-954 -1200 1201 0
-1201 -955 996 0
996 -1201 1202 0
-955 -1201 1202 0
-1202 -956 997 0
997 -1202 1203 0
-956 -1202 1203 0
-1203 -957 998 0
998 -1203 1204 0
-957 -1203 1204 0
-1204 -958 999 0
999 -1204 1205 0
-958 -1204 1205 0
-1205 -959 1000 0
1000 -1205 1206 0
-959 -1205 1206 0
-1206 -960 1001 0
1001 -1206 1207 0
-960 -1206 1207 0
-1207 -961 1002 0
1002 -1207 1208 0
-961 -1207 1208 0
-1208 -962 1003 0
1003 -1208 1209 0
-962 -1208 1209 0
-1209 -963 1004 0
1004 -1209 1210 0
-963 -1209 1210 0
-1210 -964 1005 0
1005 -1210 1211 0
-964 -1210 1211 0
-1211 -965 1006 0
1006 -1211 1212 0
-965 -1211 1212 0
-1212 -966 1007 0
1007 -1212 1213 0
-966 -1212 1213 0
-1213 -967 1008 0
1008 -1213 1214 0
-967 -1213 1214 0
-1214 -968 1009 0
1009 -1214 1215 0
-968 -1214 1215 0
-1215 -969 1010 0
1010 -1215 1216 0
-969 -1215 1216 0
-1216 -970 1011 0
1011 -1216 1217 0
-970 -1216 1217 0
-1217 -971 1012 0
1012 -1217 1218 0
-971 -1217 1218 0
-1218 -972 1013 0
1013 -1218 1219 0
-972 -1218 1219 0
-1219 -973 1014 0
1014 -1219 1220 0
-973 -1219 1220 0
-1220 -974 1015 0
1015 -1220 1221 0
-974 -1220 1221 0
-1221 -975 1016 0
1016 -1221 1222 0
-975 -1221 1222 0
-1222 -976 1017 0
1017 -1222 1223 0
-976 -1222 1223 0
-1223 -977 1018 0
1018 -1223 1224 0
-977 -1223 1224 0
-1224 -978 1019 0
1019 -1224 1225 0
-978 -1224 1225 0
-1225 -979 1020 0
1020 -1225 1226 0
-979 -1225 1226 0
-1226 -980 1021 0
1021 -1226 1227 0
-980 -1226 1227 0
-1227 -981 1022 0
1022 -1227 1228 0
-981 -1227 1228 0
-1228 -982 1023 0
1023 -1228 1229 0
-982 -1228 1229 0
-1229 -983 1024 0
1024 -1229 1230 0
-983 -1229 1230 0
-1230 -984 1025 0
1231 0
-903 944 0
944 -1231 1232 0
-903 -1231 1232 0
-1232 -904 945 0
945 -1232 1233 0
-904 -1232 1233 0
-1233 -905 946 0
946 -1233 1234 0
-905 -1233 1234 0
-1234 -906 947 0
947 -1234 1235 0
-906 -1234 1235 0
-1235 -907 948 0
948 -1235 1236 0
-907 -1235 1236 0
-1236 -908 949 0
949 -1236 1237 0
-908 -1236 1237 0
-1237 -909 950 0
950 -1237 1238 0
-909 -1237 1238 0
-1238 -910 951 0
951 -1238 1239 0
-910 -1238 1239 0
-1239 -911 952 0
952 -1239 1240 0
-911 -1239 1240 0
-1240 -912 953 0
953 -1240 1241 0
-912 -1240 1241 0
-1241 -913 954 0
954 -1241 1242 0
-913 -1241 1242 0
-1242 -914 955 0
955 -1242 1243 0
-914 -1242 1243 0
-1243 -915 956 0
956 -1243 1244 0
-915 -1243 1244 0
-1244 -916 957 0
957 -1244 1245 0
-916 -1244 1245 0
-1245 -917 958 0
958 -1245 1246 0
-917 -1245 1246 0
-1246 -918 959 0
959 -1246 1247 0
-918 -1246 1247 0
-1247 -919 960 0
960 -1247 1248 0
-919 -1247 1248 0
-1248 -920 961 0
961 -1248 1249 0
-920 -1248 1249 0
-1249 -921 962 0
962 -1249 1250 0
-921 -1249 1250 0
-1250 -922 963 0
963 -1250 1251 0
-922 -1250 1251 0
-1251 -923 964 0
964 -1251 1252 0
-923 -1251 1252 0
-1252 -924 965 0
965 -1252 1253 0
-924 -1252 1253 0
-1253 -925 966 0
966 -1253 1254 0
-925 -1253 1254 0
-1254 -926 967 0
967 -1254 1255 0
-926 -1254 1255 0
-1255 -927 968 0
968 -1255 1256 0
-927 -1255 1256 0
-1256 -928 969 0
969 -1256 1257 0
-928 -1256 1257 0
-1257 -929 970 0
970 -1257 1258 0
-929 -1257 1258 0
-1258 -930 971 0
971 -1258 1259 0
-930 -1258 1259 0
-1259 -931 972 0
972 -1259 1260 0
-931 -1259 1260 0
-1260 -932 973 0
973 -1260 1261 0
-932 -1260 1261 0
-1261 -933 974 0
974 -1261 1262 0
-933 -1261 1262 0
-1262 -934 975 0
975 -1262 1263 0
-934 -1262 1263 0
-1263 -935 976 0
976 -1263 1264 0
-935 -1263 1264 0
-1264 -936 977 0
977 -1264 1265 0
-936 -1264 1265 0
-1265 -937 978 0
978 -1265 1266 0
-937 -1265 1266 0
-1266 -938 979 0
979 -1266 1267 0
-938 -1266 1267 0
-1267 -939 980 0
980 -1267 1268 0
-939 -1267 1268 0
-1268 -940 981 0
981 -1268 1269 0
-940 -1268 1269 0
-1269 -941 982 0
982 -1269 1270 0
-941 -1269 1270 0
-1270 -942 983 0
983 -1270 1271 0
-942 -1270 1271 0
-1271 -943 984 0
1272 0
-862 903 0
903 -1272 1273 0
-862 -1272 1273 0
-1273 -863 904 0
904 -1273 1274 0
-863 -1273 1274 0
-1274 -864 905 0
905 -1274 1275 0
-864 -1274 1275 0
-1275 -865 906 0
906 -1275 1276 0
-865 -1275 1276 0
-1276 -866 907 0
907 -1276 1277 0
-866 -1276 1277 0
-1277 -867 908 0
908 -1277 1278 0
-867 -1277 1278 0
-1278 -868 909 0
909 -1278 1279 0
-868 -1278 1279 0
-1279 -869 910 0
910 -1279 1280 0
-869 -1279 1280 0
-1280 -870 911 0
911 -1280 1281 0
-870 -1280 1281 0
-1281 -871 912 0
912 -1281 1282 0
-871 -1281 1282 0
-1282 -872 913 0
913 -1282 1283 0
-872 -1282 1283 0
-1283 -873 914 0
914 -1283 1284 0
-873 -1283 1284 0
-1284 -874 915 0
915 -1284 1285 0
-874 -1284 1285 0
-1285 -875 916 0
916 -1285 1286 0
-875 -1285 1286 0
-1286 -876 917 0
917 -1286 1287 0
-876 -1286 1287 0
-1287 -877 918 0
918 -1287 1288 0
-877 -1287 1288 0
-1288 -878 919 0
919 -1288 1289 0
-878 -1288 1289 0
-1289 -879 920 0
920 -1289 1290 0
-879 -1289 1290 0
-1290 -880 921 0
921 -1290 1291 0
-880 -1290 1291 0
-1291 -881 922 0
922 -1291 1292 0
-881 -1291 1292 0
-1292 -882 923 0
923 -1292 1293 0
-882 -1292 1293 0
-1293 -883 924 0
924 -1293 1294 0
-883 -1293 1294 0
-1294 -884 925 0
925 -1294 1295 0
-884 -1294 1295 0
-1295 -885 926 0
926 -1295 1296 0
-885 -1295 1296 0
-1296 -886 927 0
927 -1296 1297 0
-886 -1296 1297 0
-1297 -887 928 0
928 -1297 1298 0
-887 -1297 1298 0
-1298 -888 929 0
929 -1298 1299 0
-888 -1298 1299 0
-1299 -889 930 0
930 -1299 1300 0
-889 -1299 1300 0
-1300 -890 931 0
931 -1300 1301 0
-890 -1300 1301 0
-1301 -891 932 0
932 -1301 1302 0
-891 -1301 1302 0
-1302 -892 933 0
933 -1302 1303 0
-892 -1302 1303 0
-1303 -893 934 0
934 -1303 1304 0
-893 -1303 1304 0
-1304 -894 935 0
935 -1304 1305 0
-894 -1304 1305 0
-1305 -895 936 0
936 -1305 1306 0
-895 -1305 1306 0
-1306 -896 937 0
937 -1306 1307 0
-896 -1306 1307 0
-1307 -897 938 0
938 -1307 1308 0
-897 -1307 1308 0
-1308 -898 939 0
939 -1308 1309 0
-898 -1308 1309 0
-1309 -899 940 0
940 -1309 1310 0
-899 -1309 1310 0
-1310 -900 941 0
941 -1310 1311 0
-900 -1310 1311 0
-1311 -901 942 0
942 -1311 1312 0
-901 -1311 1312 0
-1312 -902 943 0
1313 0
-821 862 0
862 -1313 1314 0
-821 -1313 1314 0
-1314 -822 863 0
863 -1314 1315 0
-822 -1314 1315 0
-1315 -823 864 0
864 -1315 1316 0
-823 -1315 1316 0
-1316 -824 865 0
865 -1316 1317 0
-824 -1316 1317 0
-1317 -825 866 0
866 -1317 1318 0
-825 -1317 1318 0
-1318 -826 867 0
867 -1318 1319 0
-826 -1318 1319 0
-1319 -827 868 0
868 -1319 1320 0
-827 -1319 1320 0
-1320 -828 869 0
869 -1320 1321 0
-828 -1320 1321 0
-1321 -829 870 0
870 -1321 1322 0
-829 -1321 1322 0
-1322 -830 871 0
871 -1322 1323 0
-830 -1322 1323 0
-1323 -831 872 0
872 -1323 1324 0
-831 -1323 1324 0
-1324 -832 873 0
873 -1324 1325 0
-832 -1324 1325 0
-1325 -833 874 0
874 -1325 1326 0
-833 -1325 1326 0
-1326 -834 875 0
875 -1326 1327 0
-834 -1326 1327 0
-1327 -835 876 0
876 -1327 1328 0
-835 -1327 1328 0
-1328 -836 877 0
877 -1328 1329 0
-836 -1328 1329 0
-1329 -837 878 0
878 -1329 1330 0
-837 -1329 1330 0
-1330 -838 879 0
879 -1330 1331 0
-838 -1330 1331 0
-1331 -839 880 0
880 -1331 1332 0
-839 -1331 1332 0
-1332 -840 881 0
881 -1332 1333 0
-840 -1332 1333 0
-1333 -841 882 0
882 -1333 1334 0
-841 -1333 1334 0
-1334 -842 883 0
883 -1334 1335 0
-842 -1334 1335 0
-1335 -843 884 0
884 -1335 1336 0
-843 -1335 1336 0
-1336 -844 885 0
885 -1336 1337 0
-844 -1336 1337 0
-1337 -845 886 0
886 -1337 1338 0
-845 -1337 1338 0
-1338 -846 887 0
887 -1338 1339 0
-846 -1338 1339 0
-1339 -847 888 0
888 -1339 1340 0
-847 -1339 1340 0
-1340 -848 889 0
889 -1340 1341 0
-848 -1340 1341 0
-1341 -849 890 0
890 -1341 1342 0
-849 -1341 1342 0
-1342 -850 891 0
891 -1342 1343 0
-850 -1342 1343 0
-1343 -851 892 0
892 -1343 1344 0
-851 -1343 1344 0
-1344 -852 893 0
893 -1344 1345 0
-852 -1344 1345 0
-1345 -853 894 0
894 -1345 1346 0
-853 -1345 1346 0
-1346 -854 895 0
895 -1346 1347 0
-854 -1346 1347 0
-1347 -855 896 0
896 -1347 1348 0
-855 -1347 1348 0
-1348 -856 897 0
897 -1348 1349 0
-856 -1348 1349 0
-1349 -857 898 0
898 -1349 1350 0
-857 -1349 1350 0
-1350 -858 899 0
899 -1350 1351 0
-858 -1350 1351 0
-1351 -859 900 0
900 -1351 1352 0
-859 -1351 1352 0
-1352 -860 901 0
901 -1352 1353 0
-860 -1352 1353 0
-1353 -861 902 0
1354 0
-1028 1029 0
1029 -1354 1355 0
-1028 -1354 1355 0
-1355 -1032 1033 0
1033 -1355 1356 0
-1032 -1355 1356 0
-1356 -1036 1037 0
1037 -1356 1357 0
-1036 -1356 1357 0
-1357 -1040 1041 0
1041 -1357 1358 0
-1040 -1357 1358 0
-1358 -1044 1045 0
1045 -1358 1359 0
-1044 -1358 1359 0
-1359 -1048 1049 0
1049 -1359 1360 0
-1048 -1359 1360 0
-1360 -1052 1053 0
1053 -1360 1361 0
-1052 -1360 1361 0
-1361 -1056 1057 0
1057 -1361 1362 0
-1056 -1361 1362 0
-1362 -1060 1061 0
1061 -1362 1363 0
-1060 -1362 1363 0
-1363 -1064 1065 0
1065 -1363 1364 0
-1064 -1363 1364 0
-1364 -1068 1069 0
1069 -1364 1365 0
-1068 -1364 1365 0
-1365 -1072 1073 0
1073 -1365 1366 0
-1072 -1365 1366 0
-1366 -1076 1077 0
1077 -1366 1367 0
-1076 -1366 1367 0
-1367 -1080 1081 0
1081 -1367 1368 0
-1080 -1367 1368 0
-1368 -1084 1085 0
1085 -1368 1369 0
-1084 -1368 1369 0
-1369 -1088 1089 0
1089 -1369 1370 0
-1088 -1369 1370 0
-1370 -1092 1093 0
1093 -1370 1371 0
-1092 -1370 1371 0
-1371 -1096 1097 0
1097 -1371 1372 0
-1096 -1371 1372 0
-1372 -1100 1101 0
1101 -1372 1373 0
-1100 -1372 1373 0
-1373 -1104 1105 0
1105 -1373 1374 0
-1104 -1373 1374 0
-1374 -1108 1109 0
1109 -1374 1375 0
-1108 -1374 1375 0
-1375 -1112 1113 0
1113 -1375 1376 0
-1112 -1375 1376 0
-1376 -1116 1117 0
1117 -1376 1377 0
-1116 -1376 1377 0
-1377 -1120 1121 0
1121 -1377 1378 0
-1120 -1377 1378 0
-1378 -1124 1125 0
1125 -1378 1379 0
-1124 -1378 1379 0
-1379 -1128 1129 0
1129 -1379 1380 0
-1128 -1379 1380 0
-1380 -1132 1133 0
1133 -1380 1381 0
-1132 -1380 1381 0
-1381 -1136 1137 0
1137 -1381 1382 0
-1136 -1381 1382 0
-1382 -1140 1141 0
1141 -1382 1383 0
-1140 -1382 1383 0
-1383 -1144 1145 0
1145 -1383 1384 0
-1144 -1383 1384 0
-1384 -1148 1149 0
1149 -1384 1385 0
-1148 -1384 1385 0
-1385 -1152 1153 0
1153 -1385 1386 0
-1152 -1385 1386 0
-1386 -1156 1157 0
1157 -1386 1387 0
-1156 -1386 1387 0
-1387 -1160 1161 0
1161 -1387 1388 0
-1160 -1387 1388 0
-1388 -1164 1165 0
1165 -1388 1389 0
-1164 -1388 1389 0
-1389 -1168 1169 0
1169 -1389 1390 0
-1168 -1389 1390 0
-1390 -1172 1173 0
1173 -1390 1391 0
-1172 -1390 1391 0
-1391 -1176 1177 0
1177 -1391 1392 0
-1176 -1391 1392 0
-1392 -1180 1181 0
1181 -1392 1393 0
-1180 -1392 1393 0
-1393 -1184 1185 0
1185 -1393 1394 0
-1184 -1393 1394 0
-1394 -1188 1189 0
1395 0
-1027 1028 0
1028 -1395 1396 0
-1027 -1395 1396 0
-1396 -1031 1032 0
1032 -1396 1397 0
-1031 -1396 1397 0
-1397 -1035 1036 0
1036 -1397 1398 0
-1035 -1397 1398 0
-1398 -1039 1040 0
1040 -1398 1399 0
-1039 -1398 1399 0
-1399 -1043 1044 0
1044 -1399 1400 0
-1043 -1399 1400 0
-1400 -1047 1048 0
1048 -1400 1401 0
-1047 -1400 1401 0
-1401 -1051 1052 0
1052 -1401 1402 0
-1051 -1401 1402 0
-1402 -1055 1056 0
1056 -1402 1403 0
-1055 -1402 1403 0
-1403 -1059 1060 0
1060 -1403 1404 0
-1059 -1403 1404 0
-1404 -1063 1064 0
1064 -1404 1405 0
-1063 -1404 1405 0
-1405 -1067 1068 0
1068 -1405 1406 0
-1067 -1405 1406 0
-1406 -1071 1072 0
1072 -1406 1407 0
-1071 -1406 1407 0
-1407 -1075 1076 0
1076 -1407 1408 0
-1075 -1407 1408 0
-1408 -1079 1080 0
1080 -1408 1409 0
-1079 -1408 1409 0
-1409 -1083 1084 0
1084 -1409 1410 0
-1083 -1409 1410 0
-1410 -1087 1088 0
1088 -1410 1411 0
-1087 -1410 1411 0
-1411 -1091 1092 0
1092 -1411 1412 0
-1091 -1411 1412 0
-1412 -1095 1096 0
1096 -1412 1413 0
-1095 -1412 1413 0
-1413 -1099 1100 0
1100 -1413 1414 0
-1099 -1413 1414 0
-1414 -1103 1104 0
1104 -1414 1415 0
-1103 -1414 1415 0
-1415 -1107 1108 0
1108 -1415 1416 0
-1107 -1415 1416 0
-1416 -1111 1112 0
1112 -1416 1417 0
-1111 -1416 1417 0
-1417 -1115 1116 0
1116 -1417 1418 0
-1115 -1417 1418 0
-1418 -1119 1120 0
1120 -1418 1419 0
-1119 -1418 1419 0
-1419 -1123 1124 0
1124 -1419 1420 0
-1123 -1419 1420 0
-1420 -1127 1128 0
1128 -1420 1421 0
-1127 -1420 1421 0
-1421 -1131 1132 0
1132 -1421 1422 0
-1131 -1421 1422 0
-1422 -1135 1136 0
1136 -1422 1423 0
-1135 -1422 1423 0
-1423 -1139 1140 0
1140 -1423 1424 0
-1139 -1423 1424 0
-1424 -1143 1144 0
1144 -1424 1425 0
-1143 -1424 1425 0
-1425 -1147 1148 0
1148 -1425 1426 0
-1147 -1425 1426 0
-1426 -1151 1152 0
1152 -1426 1427 0
-1151 -1426 1427 0
-1427 -1155 1156 0
1156 -1427 1428 0
-1155 -1427 1428 0
-1428 -1159 1160 0
1160 -1428 1429 0
-1159 -1428 1429 0
-1429 -1163 1164 0
1164 -1429 1430 0
-1163 -1429 1430 0
-1430 -1167 1168 0
1168 -1430 1431 0
-1167 -1430 1431 0
-1431 -1171 1172 0
1172 -1431 1432 0
-1171 -1431 1432 0
-1432 -1175 1176 0
1176 -1432 1433 0
-1175 -1432 1433 0
-1433 -1179 1180 0
1180 -1433 1434 0
-1179 -1433 1434 0
-1434 -1183 1184 0
1184 -1434 1435 0
-1183 -1434 1435 0
-1435 -1187 1188 0
1436 0
-1026 1027 0
1027 -1436 1437 0
-1026 -1436 1437 0
-1437 -1030 1031 0
1031 -1437 1438 0
-1030 -1437 1438 0
-1438 -1034 1035 0
1035 -1438 1439 0
-1034 -1438 1439 0
-1439 -1038 1039 0
1039 -1439 1440 0
-1038 -1439 1440 0
-1440 -1042 1043 0
1043 -1440 1441 0
-1042 -1440 1441 0
-1441 -1046 1047 0
1047 -1441 1442 0
-1046 -1441 1442 0
-1442 -1050 1051 0
1051 -1442 1443 0
-1050 -1442 1443 0
-1443 -1054 1055 0
1055 -1443 1444 0
-1054 -1443 1444 0
-1444 -1058 1059 0
1059 -1444 1445 0
-1058 -1444 1445 0
-1445 -1062 1063 0
1063 -1445 1446 0
-1062 -1445 1446 0
-1446 -1066 1067 0
1067 -1446 1447 0
-1066 -1446 1447 0
-1447 -1070 1071 0
1071 -1447 1448 0
-1070 -1447 1448 0
-1448 -1074 1075 0
1075 -1448 1449 0
-1074 -1448 1449 0
-1449 -1078 1079 0
1079 -1449 1450 0
-1078 -1449 1450 0
-1450 -1082 1083 0
1083 -1450 1451 0
-1082 -1450 1451 0
-1451 -1086 1087 0
1087 -1451 1452 0
-1086 -1451 1452 0
-1452 -1090 1091 0
1091 -1452 1453 0
-1090 -1452 1453 0
-1453 -1094 1095 0
1095 -1453 1454 0
-1094 -1453 1454 0
-1454 -1098 1099 0
1099 -1454 1455 0
-1098 -1454 1455 0
-1455 -1102 1103 0
1103 -1455 1456 0
-1102 -1455 1456 0
-1456 -1106 1107 0
1107 -1456 1457 0
-1106 -1456 1457 0
-1457 -1110 1111 0
1111 -1457 1458 0
-1110 -1457 1458 0
-1458 -1114 1115 0
1115 -1458 1459 0
-1114 -1458 1459 0
-1459 -1118 1119 0
1119 -1459 1460 0
-1118 -1459 1460 0
-1460 -1122 1123 0
1123 -1460 1461 0
-1122 -1460 1461 0
-1461 -1126 1127 0
1127 -1461 1462 0
-1126 -1461 1462 0
-1462 -1130 1131 0
1131 -1462 1463 0
-1130 -1462 1463 0
-1463 -1134 1135 0
1135 -1463 1464 0
-1134 -1463 1464 0
-1464 -1138 1139 0
1139 -1464 1465 0
-1138 -1464 1465 0
-1465 -1142 1143 0
1143 -1465 1466 0
-1142 -1465 1466 0
-1466 -1146 1147 0
1147 -1466 1467 0
-1146 -1466 1467 0
-1467 -1150 1151 0
1151 -1467 1468 0
-1150 -1467 1468 0
-1468 -1154 1155 0
1155 -1468 1469 0
-1154 -1468 1469 0
-1469 -1158 1159 0
1159 -1469 1470 0
-1158 -1469 1470 0
-1470 -1162 1163 0
1163 -1470 1471 0
-1162 -1470 1471 0
-1471 -1166 1167 0
1167 -1471 1472 0
-1166 -1471 1472 0
-1472 -1170 1171 0
1171 -1472 1473 0
-1170 -1472 1473 0
-1473 -1174 1175 0
1175 -1473 1474 0
-1174 -1473 1474 0
-1474 -1178 1179 0
1179 -1474 1475 0
-1178 -1474 1475 0
-1475 -1182 1183 0
1183 -1475 1476 0
-1182 -1475 1476 0
-1476 -1186 1187 0
1477 0
-821 822 0
822 -1477 1478 0
-821 -1477 1478 0
-1478 -822 821 0
821 -1478 1479 0
-822 -1478 1479 0
-1479 -862 863 0
863 -1479 1480 0
-862 -1479 1480 0
-1480 -863 862 0
862 -1480 1481 0
-863 -1480 1481 0
-1481 -903 904 0
904 -1481 1482 0
-903 -1481 1482 0
-1482 -904 903 0
903 -1482 1483 0
-904 -1482 1483 0
-1483 -944 945 0
945 -1483 1484 0
-944 -1483 1484 0
-1484 -945 944 0
944 -1484 1485 0
-945 -1484 1485 0
-1485 -985 986 0
986 -1485 1486 0
-985 -1485 1486 0
-1486 -986 985 0
985 -1486 1487 0
-986 -1486 1487 0
-1487 -1026 1030 0
1030 -1487 1488 0
-1026 -1487 1488 0
-1488 -1030 1026 0
1026 -1488 1489 0
-1030 -1488 1489 0
-1489 -1027 1031 0
1031 -1489 1490 0
-1027 -1489 1490 0
-1490 -1031 1027 0
1027 -1490 1491 0
-1031 -1490 1491 0
-1491 -1028 1032 0
1032 -1491 1492 0
-1028 -1491 1492 0
-1492 -1032 1028 0
1028 -1492 1493 0
-1032 -1492 1493 0
-1493 -1029 1033 0
1033 -1493 1494 0
-1029 -1493 1494 0
-1494 -1033 1029 0
1029 -1494 1495 0
-1033 -1494 1495 0
-1495 -2 41 0
41 -1495 1496 0
-2 -1495 1496 0
-1496 -3 42 0
42 -1496 1497 0
-3 -1496 1497 0
-1497 -4 43 0
43 -1497 1498 0
-4 -1497 1498 0
-1498 -5 44 0
44 -1498 1499 0
-5 -1498 1499 0
-1499 -6 45 0
45 -1499 1500 0
-6 -1499 1500 0
-1500 -7 46 0
46 -1500 1501 0
-7 -1500 1501 0
-1501 -8 47 0
47 -1501 1502 0
-8 -1501 1502 0
-1502 -9 48 0
48 -1502 1503 0
-9 -1502 1503 0
-1503 -10 49 0
49 -1503 1504 0
-10 -1503 1504 0
-1504 -11 50 0
50 -1504 1505 0
-11 -1504 1505 0
-1505 -12 51 0
51 -1505 1506 0
-12 -1505 1506 0
-1506 -13 52 0
52 -1506 1507 0
-13 -1506 1507 0
-1507 -14 53 0
53 -1507 1508 0
-14 -1507 1508 0
-1508 -15 54 0
54 -1508 1509 0
-15 -1508 1509 0
-1509 -16 55 0
55 -1509 1510 0
-16 -1509 1510 0
-1510 -17 56 0
56 -1510 1511 0
-17 -1510 1511 0
-1511 -18 57 0
57 -1511 1512 0
-18 -1511 1512 0
-1512 -19 58 0
58 -1512 1513 0
-19 -1512 1513 0
-1513 -20 59 0
59 -1513 1514 0
-20 -1513 1514 0
-1514 -21 60 0
60 -1514 1515 0
-21 -1514 1515 0
-1515 -22 61 0
61 -1515 1516 0
-22 -1515 1516 0
-1516 -23 62 0
62 -1516 1517 0
-23 -1516 1517 0
-1517 -24 63 0
63 -1517 1518 0
-24 -1517 1518 0
-1518 -25 64 0
64 -1518 1519 0
-25 -1518 1519 0
-1519 -26 65 0
65 -1519 1520 0
-26 -1519 1520 0
-1520 -27 66 0
66 -1520 1521 0
-27 -1520 1521 0
-1521 -28 67 0
67 -1521 1522 0
-28 -1521 1522 0
-1522 -29 68 0
68 -1522 1523 0
-29 -1522 1523 0
-1523 -30 69 0
69 -1523 1524 0
-30 -1523 1524 0
-1524 -31 70 0
1525 0
-822 823 0
823 -1525 1526 0
-822 -1525 1526 0
-1526 -823 822 0
822 -1526 1527 0
-823 -1526 1527 0
-1527 -863 864 0
864 -1527 1528 0
-863 -1527 1528 0
-1528 -864 863 0
863 -1528 1529 0
-864 -1528 1529 0
-1529 -904 905 0
905 -1529 1530 0
-904 -1529 1530 0
-1530 -905 904 0
904 -1530 1531 0
-905 -1530 1531 0
-1531 -945 946 0
946 -1531 1532 0
-945 -1531 1532 0
-1532 -946 945 0
945 -1532 1533 0
-946 -1532 1533 0
-1533 -986 987 0
987 -1533 1534 0
-986 -1533 1534 0
-1534 -987 986 0
986 -1534 1535 0
-987 -1534 1535 0
-1535 -1030 1034 0
1034 -1535 1536 0
-1030 -1535 1536 0
-1536 -1034 1030 0
1030 -1536 1537 0
-1034 -1536 1537 0
-1537 -1031 1035 0
1035 -1537 1538 0
-1031 -1537 1538 0
-1538 -1035 1031 0
1031 -1538 1539 0
-1035 -1538 1539 0
-1539 -1032 1036 0
1036 -1539 1540 0
-1032 -1539 1540 0
-1540 -1036 1032 0
1032 -1540 1541 0
-1036 -1540 1541 0
-1541 -1033 1037 0
1037 -1541 1542 0
-1033 -1541 1542 0
-1542 -1037 1033 0
1033 -1542 1543 0
-1037 -1542 1543 0
-1543 -1 2 0
2 -1543 1544 0
-1 -1543 1544 0
-1544 -2 1 0
1 -1544 1545 0
-2 -1544 1545 0
-1545 -42 80 0
80 -1545 1546 0
-42 -1545 1546 0
-1546 -43 81 0
81 -1546 1547 0
-43 -1546 1547 0
-1547 -44 82 0
82 -1547 1548 0
-44 -1547 1548 0
-1548 -45 83 0
83 -1548 1549 0
-45 -1548 1549 0
-1549 -46 84 0
84 -1549 1550 0
-46 -1549 1550 0
-1550 -47 85 0
85 -1550 1551 0
-47 -1550 1551 0
-1551 -48 86 0
86 -1551 1552 0
-48 -1551 1552 0
-1552 -49 87 0
87 -1552 1553 0
-49 -1552 1553 0
-1553 -50 88 0
88 -1553 1554 0
-50 -1553 1554 0
-1554 -51 89 0
89 -1554 1555 0
-51 -1554 1555 0
-1555 -52 90 0
90 -1555 1556 0
-52 -1555 1556 0
-1556 -53 91 0
91 -1556 1557 0
-53 -1556 1557 0
-1557 -54 92 0
92 -1557 1558 0
-54 -1557 1558 0
-1558 -55 93 0
93 -1558 1559 0
-55 -1558 1559 0
-1559 -56 94 0
94 -1559 1560 0
-56 -1559 1560 0
-1560 -57 95 0
95 -1560 1561 0
-57 -1560 1561 0
-1561 -58 96 0
96 -1561 1562 0
-58 -1561 1562 0
-1562 -59 97 0
97 -1562 1563 0
-59 -1562 1563 0
-1563 -60 98 0
98 -1563 1564 0
-60 -1563 1564 0
-1564 -61 99 0
99 -1564 1565 0
-61 -1564 1565 0
-1565 -62 100 0
100 -1565 1566 0
-62 -1565 1566 0
-1566 -63 101 0
101 -1566 1567 0
-63 -1566 1567 0
-1567 -64 102 0
102 -1567 1568 0
-64 -1567 1568 0
-1568 -65 103 0
103 -1568 1569 0
-65 -1568 1569 0
-1569 -66 104 0
104 -1569 1570 0
-66 -1569 1570 0
-1570 -67 105 0
105 -1570 1571 0
-67 -1570 1571 0
-1571 -68 106 0
106 -1571 1572 0
-68 -1571 1572 0
-1572 -69 107 0
1573 0
-823 824 0
824 -1573 1574 0
-823 -1573 1574 0
-1574 -824 823 0
823 -1574 1575 0
-824 -1574 1575 0
-1575 -864 865 0
865 -1575 1576 0
-864 -1575 1576 0
-1576 -865 864 0
864 -1576 1577 0
-865 -1576 1577 0
-1577 -905 906 0
906 -1577 1578 0
-905 -1577 1578 0
-1578 -906 905 0
905 -1578 1579 0
-906 -1578 1579 0
-1579 -946 947 0
947 -1579 1580 0
-946 -1579 1580 0
-1580 -947 946 0
946 -1580 1581 0
-947 -1580 1581 0
-1581 -987 988 0
988 -1581 1582 0
-987 -1581 1582 0
-1582 -988 987 0
987 -1582 1583 0
-988 -1582 1583 0
-1583 -1034 1038 0
1038 -1583 1584 0
-1034 -1583 1584 0
-1584 -1038 1034 0
1034 -1584 1585 0
-1038 -1584 1585 0
-1585 -1035 1039 0
1039 -1585 1586 0
-1035 -1585 1586 0
-1586 -1039 1035 0
1035 -1586 1587 0
-1039 -1586 1587 0
-1587 -1036 1040 0
1040 -1587 1588 0
-1036 -1587 1588 0
-1588 -1040 1036 0
1036 -1588 1589 0
-1040 -1588 1589 0
-1589 -1037 1041 0
1041 -1589 1590 0
-1037 -1589 1590 0
-1590 -1041 1037 0
1037 -1590 1591 0
-1041 -1590 1591 0
-1591 -2 3 0
3 -1591 1592 0
-2 -1591 1592 0
-1592 -3 2 0
2 -1592 1593 0
-3 -1592 1593 0
-1593 -41 42 0
42 -1593 1594 0
-41 -1593 1594 0
-1594 -42 41 0
41 -1594 1595 0
-42 -1594 1595 0
-1595 -81 118 0
118 -1595 1596 0
-81 -1595 1596 0
-1596 -82 119 0
119 -1596 1597 0
-82 -1596 1597 0
-1597 -83 120 0
120 -1597 1598 0
-83 -1597 1598 0
-1598 -84 121 0
121 -1598 1599 0
-84 -1598 1599 0
-1599 -85 122 0
122 -1599 1600 0
-85 -1599 1600 0
-1600 -86 123 0
123 -1600 1601 0
-86 -1600 1601 0
-1601 -87 124 0
124 -1601 1602 0
-87 -1601 1602 0
-1602 -88 125 0
125 -1602 1603 0
-88 -1602 1603 0
-1603 -89 126 0
126 -1603 1604 0
-89 -1603 1604 0
-1604 -90 127 0
127 -1604 1605 0
-90 -1604 1605 0
-1605 -91 128 0
128 -1605 1606 0
-91 -1605 1606 0
-1606 -92 129 0
129 -1606 1607 0
-92 -1606 1607 0
-1607 -93 130 0
130 -1607 1608 0
-93 -1607 1608 0
-1608 -94 131 0
131 -1608 1609 0
-94 -1608 1609 0
-1609 -95 132 0
132 -1609 1610 0
-95 -1609 1610 0
-1610 -96 133 0
133 -1610 1611 0
-96 -1610 1611 0
-1611 -97 134 0
134 -1611 1612 0
-97 -1611 1612 0
-1612 -98 135 0
135 -1612 1613 0
-98 -1612 1613 0
-1613 -99 136 0
136 -1613 1614 0
-99 -1613 1614 0
-1614 -100 137 0
137 -1614 1615 0
-100 -1614 1615 0
-1615 -101 138 0
138 -1615 1616 0
-101 -1615 1616 0
-1616 -102 139 0
139 -1616 1617 0
-102 -1616 1617 0
-1617 -103 140 0
140 -1617 1618 0
-103 -1617 1618 0
-1618 -104 141 0
141 -1618 1619 0
-104 -1618 1619 0
-1619 -105 142 0
142 -1619 1620 0
-105 -1619 1620 0
-1620 -106 143 0
1621 0
-824 825 0
825 -1621 1622 0
-824 -1621 1622 0
-1622 -825 824 0
824 -1622 1623 0
-825 -1622 1623 0
-1623 -865 866 0
866 -1623 1624 0
-865 -1623 1624 0
-1624 -866 865 0
865 -1624 1625 0
-866 -1624 1625 0
-1625 -906 907 0
907 -1625 1626 0
-906 -1625 1626 0
-1626 -907 906 0
906 -1626 1627 0
-907 -1626 1627 0
-1627 -947 948 0
948 -1627 1628 0
-947 -1627 1628 0
-1628 -948 947 0
947 -1628 1629 0
-948 -1628 1629 0
-1629 -988 989 0
989 -1629 1630 0
-988 -1629 1630 0
-1630 -989 988 0
988 -1630 1631 0
-989 -1630 1631 0
-1631 -1038 1042 0
1042 -1631 1632 0
-1038 -1631 1632 0
-1632 -1042 1038 0
1038 -1632 1633 0
-1042 -1632 1633 0
-1633 -1039 1043 0
1043 -1633 1634 0
-1039 -1633 1634 0
-1634 -1043 1039 0
1039 -1634 1635 0
-1043 -1634 1635 0
-1635 -1040 1044 0
1044 -1635 1636 0
-1040 -1635 1636 0
-1636 -1044 1040 0
1040 -1636 1637 0
-1044 -1636 1637 0
-1637 -1041 1045 0
1045 -1637 1638 0
-1041 -1637 1638 0
-1638 -1045 1041 0
1041 -1638 1639 0
-1045 -1638 1639 0
-1639 -3 4 0
4 -1639 1640 0
-3 -1639 1640 0
-1640 -4 3 0
3 -1640 1641 0
-4 -1640 1641 0
-1641 -42 43 0
43 -1641 1642 0
-42 -1641 1642 0
-1642 -43 42 0
42 -1642 1643 0
-43 -1642 1643 0
-1643 -80 81 0
81 -1643 1644 0
-80 -1643 1644 0
-1644 -81 80 0
80 -1644 1645 0
-81 -1644 1645 0
-1645 -119 155 0
155 -1645 1646 0
-119 -1645 1646 0
-1646 -120 156 0
156 -1646 1647 0
-120 -1646 1647 0
-1647 -121 157 0
157 -1647 1648 0
-121 -1647 1648 0
-1648 -122 158 0
158 -1648 1649 0
-122 -1648 1649 0
-1649 -123 159 0
159 -1649 1650 0
-123 -1649 1650 0
-1650 -124 160 0
160 -1650 1651 0
-124 -1650 1651 0
-1651 -125 161 0
161 -1651 1652 0
-125 -1651 1652 0
-1652 -126 162 0
162 -1652 1653 0
-126 -1652 1653 0
-1653 -127 163 0
163 -1653 1654 0
-127 -1653 1654 0
-1654 -128 164 0
164 -1654 1655 0
-128 -1654 1655 0
-1655 -129 165 0
165 -1655 1656 0
-129 -1655 1656 0
-1656 -130 166 0
166 -1656 1657 0
-130 -1656 1657 0
-1657 -131 167 0
167 -1657 1658 0
-131 -1657 1658 0
-1658 -132 168 0
168 -1658 1659 0
-132 -1658 1659 0
-1659 -133 169 0
169 -1659 1660 0
-133 -1659 1660 0
-1660 -134 170 0
170 -1660 1661 0
-134 -1660 1661 0
-1661 -135 171 0
171 -1661 1662 0
-135 -1661 1662 0
-1662 -136 172 0
172 -1662 1663 0
-136 -1662 1663 0
-1663 -137 173 0
173 -1663 1664 0
-137 -1663 1664 0
-1664 -138 174 0
174 -1664 1665 0
-138 -1664 1665 0
-1665 -139 175 0
175 -1665 1666 0
-139 -1665 1666 0
-1666 -140 176 0
176 -1666 1667 0
-140 -1666 1667 0
-1667 -141 177 0
177 -1667 1668 0
-141 -1667 1668 0
-1668 -142 178 0
1669 0
-825 826 0
826 -1669 1670 0
-825 -1669 1670 0
-1670 -826 825 0
825 -1670 1671 0
-826 -1670 1671 0
-1671 -866 867 0
867 -1671 1672 0
-866 -1671 1672 0
-1672 -867 866 0
866 -1672 1673 0
-867 -1672 1673 0
-1673 -907 908 0
908 -1673 1674 0
-907 -1673 1674 0
-1674 -908 907 0
907 -1674 1675 0
-908 -1674 1675 0
-1675 -948 949 0
949 -1675 1676 0
-948 -1675 1676 0
-1676 -949 948 0
948 -1676 1677 0
-949 -1676 1677 0
-1677 -989 990 0
990 -1677 1678 0
-989 -1677 1678 0
-1678 -990 989 0
989 -1678 1679 0
-990 -1678 1679 0
-1679 -1042 1046 0
1046 -1679 1680 0
-1042 -1679 1680 0
-1680 -1046 1042 0
1042 -1680 1681 0
-1046 -1680 1681 0
-1681 -1043 1047 0
1047 -1681 1682 0
-1043 -1681 1682 0
-1682 -1047 1043 0
1043 -1682 1683 0
-1047 -1682 1683 0
-1683 -1044 1048 0
1048 -1683 1684 0
-1044 -1683 1684 0
-1684 -1048 1044 0
1044 -1684 1685 0
-1048 -1684 1685 0
-1685 -1045 1049 0
1049 -1685 1686 0
-1045 -1685 1686 0
-1686 -1049 1045 0
1045 -1686 1687 0
-1049 -1686 1687 0
-1687 -4 5 0
5 -1687 1688 0
-4 -1687 1688 0
-1688 -5 4 0
4 -1688 1689 0
-5 -1688 1689 0
-1689 -43 44 0
44 -1689 1690 0
-43 -1689 1690 0
-1690 -44 43 0
43 -1690 1691 0
-44 -1690 1691 0
-1691 -81 82 0
82 -1691 1692 0
-81 -1691 1692 0
-1692 -82 81 0
81 -1692 1693 0
-82 -1692 1693 0
-1693 -118 119 0
119 -1693 1694 0
-118 -1693 1694 0
-1694 -119 118 0
118 -1694 1695 0
-119 -1694 1695 0
-1695 -156 191 0
191 -1695 1696 0
-156 -1695 1696 0
-1696 -157 192 0
192 -1696 1697 0
-157 -1696 1697 0
-1697 -158 193 0
193 -1697 1698 0
-158 -1697 1698 0
-1698 -159 194 0
194 -1698 1699 0
-159 -1698 1699 0
-1699 -160 195 0
195 -1699 1700 0
-160 -1699 1700 0
-1700 -161 196 0
196 -1700 1701 0
-161 -1700 1701 0
-1701 -162 197 0
197 -1701 1702 0
-162 -1701 1702 0
-1702 -163 198 0
198 -1702 1703 0
-163 -1702 1703 0
-1703 -164 199 0
199 -1703 1704 0
-164 -1703 1704 0
-1704 -165 200 0
200 -1704 1705 0
-165 -1704 1705 0
-1705 -166 201 0
201 -1705 1706 0
-166 -1705 1706 0
-1706 -167 202 0
202 -1706 1707 0
-167 -1706 1707 0
-1707 -168 203 0
203 -1707 1708 0
-168 -1707 1708 0
-1708 -169 204 0
204 -1708 1709 0
-169 -1708 1709 0
-1709 -170 205 0
205 -1709 1710 0
-170 -1709 1710 0
-1710 -171 206 0
206 -1710 1711 0
-171 -1710 1711 0
-1711 -172 207 0
207 -1711 1712 0
-172 -1711 1712 0
-1712 -173 208 0
208 -1712 1713 0
-173 -1712 1713 0
-1713 -174 209 0
209 -1713 1714 0
-174 -1713 1714 0
-1714 -175 210 0
210 -1714 1715 0
-175 -1714 1715 0
-1715 -176 211 0
211 -1715 1716 0
-176 -1715 1716 0
-1716 -177 212 0
1717 0
-826 827 0
827 -1717 1718 0
-826 -1717 1718 0
-1718 -827 826 0
826 -1718 1719 0
-827 -1718 1719 0
-1719 -867 868 0
868 -1719 1720 0
-867 -1719 1720 0
-1720 -868 867 0
867 -1720 1721 0
-868 -1720 1721 0
-1721 -908 909 0
909 -1721 1722 0
-908 -1721 1722 0
-1722 -909 908 0
908 -1722 1723 0
-909 -1722 1723 0
-1723 -949 950 0
950 -1723 1724 0
-949 -1723 1724 0
-1724 -950 949 0
949 -1724 1725 0
-950 -1724 1725 0
-1725 -990 991 0
991 -1725 1726 0
-990 -1725 1726 0
-1726 -991 990 0
990 -1726 1727 0
-991 -1726 1727 0
-1727 -1046 1050 0
1050 -1727 1728 0
-1046 -1727 1728 0
-1728 -1050 1046 0
1046 -1728 1729 0
-1050 -1728 1729 0
-1729 -1047 1051 0
1051 -1729 1730 0
-1047 -1729 1730 0
-1730 -1051 1047 0
1047 -1730 1731 0
-1051 -1730 1731 0
-1731 -1048 1052 0
1052 -1731 1732 0
-1048 -1731 1732 0
-1732 -1052 1048 0
1048 -1732 1733 0
-1052 -1732 1733 0
-1733 -1049 1053 0
1053 -1733 1734 0
-1049 -1733 1734 0
-1734 -1053 1049 0
1049 -1734 1735 0
-1053 -1734 1735 0
-1735 -5 6 0
6 -1735 1736 0
-5 -1735 1736 0
-1736 -6 5 0
5 -1736 1737 0
-6 -1736 1737 0
-1737 -44 45 0
45 -1737 1738 0
-44 -1737 1738 0
-1738 -45 44 0
44 -1738 1739 0
-45 -1738 1739 0
-1739 -82 83 0
83 -1739 1740 0
-82 -1739 1740 0
-1740 -83 82 0
82 -1740 1741 0
-83 -1740 1741 0
-1741 -119 120 0
120 -1741 1742 0
-119 -1741 1742 0
-1742 -120 119 0
119 -1742 1743 0
-120 -1742 1743 0
-1743 -155 156 0
156 -1743 1744 0
-155 -1743 1744 0
-1744 -156 155 0
155 -1744 1745 0
-156 -1744 1745 0
-1745 -192 226 0
226 -1745 1746 0
-192 -1745 1746 0
-1746 -193 227 0
227 -1746 1747 0
-193 -1746 1747 0
-1747 -194 228 0
228 -1747 1748 0
-194 -1747 1748 0
-1748 -195 229 0
229 -1748 1749 0
-195 -1748 1749 0
-1749 -196 230 0
230 -1749 1750 0
-196 -1749 1750 0
-1750 -197 231 0
231 -1750 1751 0
-197 -1750 1751 0
-1751 -198 232 0
232 -1751 1752 0
-198 -1751 1752 0
-1752 -199 233 0
233 -1752 1753 0
-199 -1752 1753 0
-1753 -200 234 0
234 -1753 1754 0
-200 -1753 1754 0
-1754 -201 235 0
235 -1754 1755 0
-201 -1754 1755 0
-1755 -202 236 0
236 -1755 1756 0
-202 -1755 1756 0
-1756 -203 237 0
237 -1756 1757 0
-203 -1756 1757 0
-1757 -204 238 0
238 -1757 1758 0
-204 -1757 1758 0
-1758 -205 239 0
239 -1758 1759 0
-205 -1758 1759 0
-1759 -206 240 0
240 -1759 1760 0
-206 -1759 1760 0
-1760 -207 241 0
241 -1760 1761 0
-207 -1760 1761 0
-1761 -208 242 0
242 -1761 1762 0
-208 -1761 1762 0
-1762 -209 243 0
243 -1762 1763 0
-209 -1762 1763 0
-1763 -210 244 0
244 -1763 1764 0
-210 -1763 1764 0
-1764 -211 245 0
1765 0
-827 828 0
828 -1765 1766 0
-827 -1765 1766 0
-1766 -828 827 0
827 -1766 1767 0
-828 -1766 1767 0
-1767 -868 869 0
869 -1767 1768 0
-868 -1767 1768 0
-1768 -869 868 0
868 -1768 1769 0
-869 -1768 1769 0
-1769 -909 910 0
910 -1769 1770 0
-909 -1769 1770 0
-1770 -910 909 0
909 -1770 1771 0
-910 -1770 1771 0
-1771 -950 951 0
951 -1771 1772 0
-950 -1771 1772 0
-1772 -951 950 0
950 -1772 1773 0
-951 -1772 1773 0
-1773 -991 992 0
992 -1773 1774 0
-991 -1773 1774 0
-1774 -992 991 0
991 -1774 1775 0
-992 -1774 1775 0
-1775 -1050 1054 0
1054 -1775 1776 0
-1050 -1775 1776 0
-1776 -1054 1050 0
1050 -1776 1777 0
-1054 -1776 1777 0
-1777 -1051 1055 0
1055 -1777 1778 0
-1051 -1777 1778 0
-1778 -1055 1051 0
1051 -1778 1779 0
-1055 -1778 1779 0
-1779 -1052 1056 0
1056 -1779 1780 0
-1052 -1779 1780 0
-1780 -1056 1052 0
1052 -1780 1781 0
-1056 -1780 1781 0
-1781 -1053 1057 0
1057 -1781 1782 0
-1053 -1781 1782 0
-1782 -1057 1053 0
1053 -1782 1783 0
-1057 -1782 1783 0
-1783 -6 7 0
7 -1783 1784 0
-6 -1783 1784 0
-1784 -7 6 0
6 -1784 1785 0
-7 -1784 1785 0
-1785 -45 46 0
46 -1785 1786 0
-45 -1785 1786 0
-1786 -46 45 0
45 -1786 1787 0
-46 -1786 1787 0
-1787 -83 84 0
84 -1787 1788 0
-83 -1787 1788 0
-1788 -84 83 0
83 -1788 1789 0
-84 -1788 1789 0
-1789 -120 121 0
121 -1789 1790 0
-120 -1789 1790 0
-1790 -121 120 0
120 -1790 1791 0
-121 -1790 1791 0
-1791 -156 157 0
157 -1791 1792 0
-156 -1791 1792 0
-1792 -157 156 0
156 -1792 1793 0
-157 -1792 1793 0
-1793 -191 192 0
192 -1793 1794 0
-191 -1793 1794 0
-1794 -192 191 0
191 -1794 1795 0
-192 -1794 1795 0
-1795 -227 260 0
260 -1795 1796 0
-227 -1795 1796 0
-1796 -228 261 0
261 -1796 1797 0
-228 -1796 1797 0
-1797 -229 262 0
262 -1797 1798 0
-229 -1797 1798 0
-1798 -230 263 0
263 -1798 1799 0
-230 -1798 1799 0
-1799 -231 264 0
264 -1799 1800 0
-231 -1799 1800 0
-1800 -232 265 0
265 -1800 1801 0
-232 -1800 1801 0
-1801 -233 266 0
266 -1801 1802 0
-233 -1801 1802 0
-1802 -234 267 0
267 -1802 1803 0
-234 -1802 1803 0
-1803 -235 268 0
268 -1803 1804 0
-235 -1803 1804 0
-1804 -236 269 0
269 -1804 1805 0
-236 -1804 1805 0
-1805 -237 270 0
270 -1805 1806 0
-237 -1805 1806 0
-1806 -238 271 0
271 -1806 1807 0
-238 -1806 1807 0
-1807 -239 272 0
272 -1807 1808 0
-239 -1807 1808 0
-1808 -240 273 0
273 -1808 1809 0
-240 -1808 1809 0
-1809 -241 274 0
274 -1809 1810 0
-241 -1809 1810 0
-1810 -242 275 0
275 -1810 1811 0
-242 -1810 1811 0
-1811 -243 276 0
276 -1811 1812 0
-243 -1811 1812 0
-1812 -244 277 0
1813 0
-828 829 0
829 -1813 1814 0
-828 -1813 1814 0
-1814 -829 828 0
828 -1814 1815 0
-829 -1814 1815 0
-1815 -869 870 0
870 -1815 1816 0
-869 -1815 1816 0
-1816 -870 869 0
869 -1816 1817 0
-870 -1816 1817 0
-1817 -910 911 0
911 -1817 1818 0
-910 -1817 1818 0
-1818 -911 910 0
910 -1818 1819 0
-911 -1818 1819 0
-1819 -951 952 0
952 -1819 1820 0
-951 -1819 1820 0
-1820 -952 951 0
951 -1820 1821 0
-952 -1820 1821 0
-1821 -992 993 0
993 -1821 1822 0
-992 -1821 1822 0
-1822 -993 992 0
992 -1822 1823 0
-993 -1822 1823 0
-1823 -1054 1058 0
1058 -1823 1824 0
-1054 -1823 1824 0
-1824 -1058 1054 0
1054 -1824 1825 0
-1058 -1824 1825 0
-1825 -1055 1059 0
1059 -1825 1826 0
-1055 -1825 1826 0
-1826 -1059 1055 0
1055 -1826 1827 0
-1059 -1826 1827 0
-1827 -1056 1060 0
1060 -1827 1828 0
-1056 -1827 1828 0
-1828 -1060 1056 0
1056 -1828 1829 0
-1060 -1828 1829 0
-1829 -1057 1061 0
1061 -1829 1830 0
-1057 -1829 1830 0
-1830 -1061 1057 0
1057 -1830 1831 0
-1061 -1830 1831 0
-1831 -7 8 0
8 -1831 1832 0
-7 -1831 1832 0
-1832 -8 7 0
7 -1832 1833 0
-8 -1832 1833 0
-1833 -46 47 0
47 -1833 1834 0
-46 -1833 1834 0
-1834 -47 46 0
46 -1834 1835 0
-47 -1834 1835 0
-1835 -84 85 0
85 -1835 1836 0
-84 -1835 1836 0
-1836 -85 84 0
84 -1836 1837 0
-85 -1836 1837 0
-1837 -121 122 0
122 -1837 1838 0
-121 -1837 1838 0
-1838 -122 121 0
121 -1838 1839 0
-122 -1838 1839 0
-1839 -157 158 0
158 -1839 1840 0
-157 -1839 1840 0
-1840 -158 157 0
157 -1840 1841 0
-158 -1840 1841 0
-1841 -192 193 0
193 -1841 1842 0
-192 -1841 1842 0
-1842 -193 192 0
192 -1842 1843 0
-193 -1842 1843 0
-1843 -226 227 0
227 -1843 1844 0
-226 -1843 1844 0
-1844 -227 226 0
226 -1844 1845 0
-227 -1844 1845 0
-1845 -261 293 0
293 -1845 1846 0
-261 -1845 1846 0
-1846 -262 294 0
294 -1846 1847 0
-262 -1846 1847 0
-1847 -263 295 0
295 -1847 1848 0
-263 -1847 1848 0
-1848 -264 296 0
296 -1848 1849 0
-264 -1848 1849 0
-1849 -265 297 0
297 -1849 1850 0
-265 -1849 1850 0
-1850 -266 298 0
298 -1850 1851 0
-266 -1850 1851 0
-1851 -267 299 0
299 -1851 1852 0
-267 -1851 1852 0
-1852 -268 300 0
300 -1852 1853 0
-268 -1852 1853 0
-1853 -269 301 0
301 -1853 1854 0
-269 -1853 1854 0
-1854 -270 302 0
302 -1854 1855 0
-270 -1854 1855 0
-1855 -271 303 0
303 -1855 1856 0
-271 -1855 1856 0
-1856 -272 304 0
304 -1856 1857 0
-272 -1856 1857 0
-1857 -273 305 0
305 -1857 1858 0
-273 -1857 1858 0
-1858 -274 306 0
306 -1858 1859 0
-274 -1858 1859 0
-1859 -275 307 0
307 -1859 1860 0
-275 -1859 1860 0
-1860 -276 308 0
1861 0
-829 830 0
830 -1861 1862 0
-829 -1861 1862 0
-1862 -830 829 0
829 -1862 1863 0
-830 -1862 1863 0
-1863 -870 871 0
871 -1863 1864 0
-870 -1863 1864 0
-1864 -871 870 0
870 -1864 1865 0
-871 -1864 1865 0
-1865 -911 912 0
912 -1865 1866 0
-911 -1865 1866 0
-1866 -912 911 0
911 -1866 1867 0
-912 -1866 1867 0
-1867 -952 953 0
953 -1867 1868 0
-952 -1867 1868 0
-1868 -953 952 0
952 -1868 1869 0
-953 -1868 1869 0
-1869 -993 994 0
994 -1869 1870 0
-993 -1869 1870 0
-1870 -994 993 0
993 -1870 1871 0
-994 -1870 1871 0
-1871 -1058 1062 0
1062 -1871 1872 0
-1058 -1871 1872 0
-1872 -1062 1058 0
1058 -1872 1873 0
-1062 -1872 1873 0
-1873 -1059 1063 0
1063 -1873 1874 0
-1059 -1873 1874 0
-1874 -1063 1059 0
1059 -1874 1875 0
-1063 -1874 1875 0
-1875 -1060 1064 0
1064 -1875 1876 0
-1060 -1875 1876 0
-1876 -1064 1060 0
1060 -1876 1877 0
-1064 -1876 1877 0
-1877 -1061 1065 0
1065 -1877 1878 0
-1061 -1877 1878 0
-1878 -1065 1061 0
1061 -1878 1879 0
-1065 -1878 1879 0
-1879 -8 9 0
9 -1879 1880 0
-8 -1879 1880 0
-1880 -9 8 0
8 -1880 1881 0
-9 -1880 1881 0
-1881 -47 48 0
48 -1881 1882 0
-47 -1881 1882 0
-1882 -48 47 0
47 -1882 1883 0
-48 -1882 1883 0
-1883 -85 86 0
86 -1883 1884 0
-85 -1883 1884 0
-1884 -86 85 0
85 -1884 1885 0
-86 -1884 1885 0
-1885 -122 123 0
123 -1885 1886 0
-122 -1885 1886 0
-1886 -123 122 0
122 -1886 1887 0
-123 -1886 1887 0
-1887 -158 159 0
159 -1887 1888 0
-158 -1887 1888 0
-1888 -159 158 0
158 -1888 1889 0
-159 -1888 1889 0
-1889 -193 194 0
194 -1889 1890 0
-193 -1889 1890 0
-1890 -194 193 0
193 -1890 1891 0
-194 -1890 1891 0
-1891 -227 228 0
228 -1891 1892 0
-227 -1891 1892 0
-1892 -228 227 0
227 -1892 1893 0
-228 -1892 1893 0
-1893 -260 261 0
261 -1893 1894 0
-260 -1893 1894 0
-1894 -261 260 0
260 -1894 1895 0
-261 -1894 1895 0
-1895 -294 325 0
325 -1895 1896 0
-294 -1895 1896 0
-1896 -295 326 0
326 -1896 1897 0
-295 -1896 1897 0
-1897 -296 327 0
327 -1897 1898 0
-296 -1897 1898 0
-1898 -297 328 0
328 -1898 1899 0
-297 -1898 1899 0
-1899 -298 329 0
329 -1899 1900 0
-298 -1899 1900 0
-1900 -299 330 0
330 -1900 1901 0
-299 -1900 1901 0
-1901 -300 331 0
331 -1901 1902 0
-300 -1901 1902 0
-1902 -301 332 0
332 -1902 1903 0
-301 -1902 1903 0
-1903 -302 333 0
333 -1903 1904 0
-302 -1903 1904 0
-1904 -303 334 0
334 -1904 1905 0
-303 -1904 1905 0
-1905 -304 335 0
335 -1905 1906 0
-304 -1905 1906 0
-1906 -305 336 0
336 -1906 1907 0
-305 -1906 1907 0
-1907 -306 337 0
337 -1907 1908 0
-306 -1907 1908 0
-1908 -307 338 0
1909 0
-830 831 0
831 -1909 1910 0
-830 -1909 1910 0
-1910 -831 830 0
830 -1910 1911 0
-831 -1910 1911 0
-1911 -871 872 0
872 -1911 1912 0
-871 -1911 1912 0
-1912 -872 871 0
871 -1912 1913 0
-872 -1912 1913 0
-1913 -912 913 0
913 -1913 1914 0
-912 -1913 1914 0
-1914 -913 912 0
912 -1914 1915 0
-913 -1914 1915 0
-1915 -953 954 0
954 -1915 1916 0
-953 -1915 1916 0
-1916 -954 953 0
953 -1916 1917 0
-954 -1916 1917 0
-1917 -994 995 0
995 -1917 1918 0
-994 -1917 1918 0
-1918 -995 994 0
994 -1918 1919 0
-995 -1918 1919 0
-1919 -1062 1066 0
1066 -1919 1920 0
-1062 -1919 1920 0
-1920 -1066 1062 0
1062 -1920 1921 0
-1066 -1920 1921 0
-1921 -1063 1067 0
1067 -1921 1922 0
-1063 -1921 1922 0
-1922 -1067 1063 0
1063 -1922 1923 0
-1067 -1922 1923 0
-1923 -1064 1068 0
1068 -1923 1924 0
-1064 -1923 1924 0
-1924 -1068 1064 0
1064 -1924 1925 0
-1068 -1924 1925 0
-1925 -1065 1069 0
1069 -1925 1926 0
-1065 -1925 1926 0
-1926 -1069 1065 0
1065 -1926 1927 0
-1069 -1926 1927 0
-1927 -9 10 0
10 -1927 1928 0
-9 -1927 1928 0
-1928 -10 9 0
9 -1928 1929 0
-10 -1928 1929 0
-1929 -48 49 0
49 -1929 1930 0
-48 -1929 1930 0
-1930 -49 48 0
48 -1930 1931 0
-49 -1930 1931 0
-1931 -86 87 0
87 -1931 1932 0
-86 -1931 1932 0
-1932 -87 86 0
86 -1932 1933 0
-87 -1932 1933 0
-1933 -123 124 0
124 -1933 1934 0
-123 -1933 1934 0
-1934 -124 123 0
123 -1934 1935 0
-124 -1934 1935 0
-1935 -159 160 0
160 -1935 1936 0
-159 -1935 1936 0
-1936 -160 159 0
159 -1936 1937 0
-160 -1936 1937 0
-1937 -194 195 0
195 -1937 1938 0
-194 -1937 1938 0
-1938 -195 194 0
194 -1938 1939 0
-195 -1938 1939 0
-1939 -228 229 0
229 -1939 1940 0
-228 -1939 1940 0
-1940 -229 228 0
228 -1940 1941 0
-229 -1940 1941 0
-1941 -261 262 0
262 -1941 1942 0
-261 -1941 1942 0
-1942 -262 261 0
261 -1942 1943 0
-262 -1942 1943 0
-1943 -293 294 0
294 -1943 1944 0
-293 -1943 1944 0
-1944 -294 293 0
293 -1944 1945 0
-294 -1944 1945 0
-1945 -326 356 0
356 -1945 1946 0
-326 -1945 1946 0
-1946 -327 357 0
357 -1946 1947 0
-327 -1946 1947 0
-1947 -328 358 0
358 -1947 1948 0
-328 -1947 1948 0
-1948 -329 359 0
359 -1948 1949 0
-329 -1948 1949 0
-1949 -330 360 0
360 -1949 1950 0
-330 -1949 1950 0
-1950 -331 361 0
361 -1950 1951 0
-331 -1950 1951 0
-1951 -332 362 0
362 -1951 1952 0
-332 -1951 1952 0
-1952 -333 363 0
363 -1952 1953 0
-333 -1952 1953 0
-1953 -334 364 0
364 -1953 1954 0
-334 -1953 1954 0
-1954 -335 365 0
365 -1954 1955 0
-335 -1954 1955 0
-1955 -336 366 0
366 -1955 1956 0
-336 -1955 1956 0
-1956 -337 367 0
1957 0
-831 832 0
832 -1957 1958 0
-831 -1957 1958 0
-1958 -832 831 0
831 -1958 1959 0
-832 -1958 1959 0
-1959 -872 873 0
873 -1959 1960 0
-872 -1959 1960 0
-1960 -873 872 0
872 -1960 1961 0
-873 -1960 1961 0
-1961 -913 914 0
914 -1961 1962 0
-913 -1961 1962 0
-1962 -914 913 0
913 -1962 1963 0
-914 -1962 1963 0
-1963 -954 955 0
955 -1963 1964 0
-954 -1963 1964 0
-1964 -955 954 0
954 -1964 1965 0
-955 -1964 1965 0
-1965 -995 996 0
996 -1965 1966 0
-995 -1965 1966 0
-1966 -996 995 0
995 -1966 1967 0
-996 -1966 1967 0
-1967 -1066 1070 0
1070 -1967 1968 0
-1066 -1967 1968 0
-1968 -1070 1066 0
1066 -1968 1969 0
-1070 -1968 1969 0
-1969 -1067 1071 0
1071 -1969 1970 0
-1067 -1969 1970 0
-1970 -1071 1067 0
1067 -1970 1971 0
-1071 -1970 1971 0
-1971 -1068 1072 0
1072 -1971 1972 0
-1068 -1971 1972 0
-1972 -1072 1068 0
1068 -1972 1973 0
-1072 -1972 1973 0
-1973 -1069 1073 0
1073 -1973 1974 0
-1069 -1973 1974 0
-1974 -1073 1069 0
1069 -1974 1975 0
-1073 -1974 1975 0
-1975 -10 11 0
11 -1975 1976 0
-10 -1975 1976 0
-1976 -11 10 0
10 -1976 1977 0
-11 -1976 1977 0
-1977 -49 50 0
50 -1977 1978 0
-49 -1977 1978 0
-1978 -50 49 0
49 -1978 1979 0
-50 -1978 1979 0
-1979 -87 88 0
88 -1979 1980 0
-87 -1979 1980 0
-1980 -88 87 0
87 -1980 1981 0
-88 -1980 1981 0
-1981 -124 125 0
125 -1981 1982 0
-124 -1981 1982 0
-1982 -125 124 0
124 -1982 1983 0
-125 -1982 1983 0
-1983 -160 161 0
161 -1983 1984 0
-160 -1983 1984 0
-1984 -161 160 0
160 -1984 1985 0
-161 -1984 1985 0
-1985 -195 196 0
196 -1985 1986 0
-195 -1985 1986 0
-1986 -196 195 0
195 -1986 1987 0
-196 -1986 1987 0
-1987 -229 230 0
230 -1987 1988 0
-229 -1987 1988 0
-1988 -230 229 0
229 -1988 1989 0
-230 -1988 1989 0
-1989 -262 263 0
263 -1989 1990 0
-262 -1989 1990 0
-1990 -263 262 0
262 -1990 1991 0
-263 -1990 1991 0
-1991 -294 295 0
295 -1991 1992 0
-294 -1991 1992 0
-1992 -295 294 0
294 -1992 1993 0
-295 -1992 1993 0
-1993 -325 326 0
326 -1993 1994 0
-325 -1993 1994 0
-1994 -326 325 0
325 -1994 1995 0
-326 -1994 1995 0
-1995 -357 386 0
386 -1995 1996 0
-357 -1995 1996 0
-1996 -358 387 0
387 -1996 1997 0
-358 -1996 1997 0
-1997 -359 388 0
388 -1997 1998 0
-359 -1997 1998 0
-1998 -360 389 0
389 -1998 1999 0
-360 -1998 1999 0
-1999 -361 390 0
390 -1999 2000 0
-361 -1999 2000 0
-2000 -362 391 0
391 -2000 2001 0
-362 -2000 2001 0
-2001 -363 392 0
392 -2001 2002 0
-363 -2001 2002 0
-2002 -364 393 0
393 -2002 2003 0
-364 -2002 2003 0
-2003 -365 394 0
394 -2003 2004 0
-365 -2003 2004 0
-2004 -366 395 0
2005 0
-832 833 0
833 -2005 2006 0
-832 -2005 2006 0
-2006 -833 832 0
832 -2006 2007 0
-833 -2006 2007 0
-2007 -873 874 0
874 -2007 2008 0
-873 -2007 2008 0
-2008 -874 873 0
873 -2008 2009 0
-874 -2008 2009 0
-2009 -914 915 0
915 -2009 2010 0
-914 -2009 2010 0
-2010 -915 914 0
914 -2010 2011 0
-915 -2010 2011 0
-2011 -955 956 0
956 -2011 2012 0
-955 -2011 2012 0
-2012 -956 955 0
955 -2012 2013 0
-956 -2012 2013 0
-2013 -996 997 0
997 -2013 2014 0
-996 -2013 2014 0
-2014 -997 996 0
996 -2014 2015 0
-997 -2014 2015 0
-2015 -1070 1074 0
1074 -2015 2016 0
-1070 -2015 2016 0
-2016 -1074 1070 0
1070 -2016 2017 0
-1074 -2016 2017 0
-2017 -1071 1075 0
1075 -2017 2018 0
-1071 -2017 2018 0
-2018 -1075 1071 0
1071 -2018 2019 0
-1075 -2018 2019 0
-2019 -1072 1076 0
1076 -2019 2020 0
-1072 -2019 2020 0
-2020 -1076 1072 0
1072 -2020 2021 0
-1076 -2020 2021 0
-2021 -1073 1077 0
1077 -2021 2022 0
-1073 -2021 2022 0
-2022 -1077 1073 0
1073 -2022 2023 0
-1077 -2022 2023 0
-2023 -11 12 0
12 -2023 2024 0
-11 -2023 2024 0
-2024 -12 11 0
11 -2024 2025 0
-12 -2024 2025 0
-2025 -50 51 0
51 -2025 2026 0
-50 -2025 2026 0
-2026 -51 50 0
50 -2026 2027 0
-51 -2026 2027 0
-2027 -88 89 0
89 -2027 2028 0
-88 -2027 2028 0
-2028 -89 88 0
88 -2028 2029 0
-89 -2028 2029 0
-2029 -125 126 0
126 -2029 2030 0
-125 -2029 2030 0
-2030 -126 125 0
125 -2030 2031 0
-126 -2030 2031 0
-2031 -161 162 0
162 -2031 2032 0
-161 -2031 2032 0
-2032 -162 161 0
161 -2032 2033 0
-162 -2032 2033 0
-2033 -196 197 0
197 -2033 2034 0
-196 -2033 2034 0
-2034 -197 196 0
196 -2034 2035 0
-197 -2034 2035 0
-2035 -230 231 0
231 -2035 2036 0
-230 -2035 2036 0
-2036 -231 230 0
230 -2036 2037 0
-231 -2036 2037 0
-2037 -263 264 0
264 -2037 2038 0
-263 -2037 2038 0
-2038 -264 263 0
263 -2038 2039 0
-264 -2038 2039 0
-2039 -295 296 0
296 -2039 2040 0
-295 -2039 2040 0
-2040 -296 295 0
295 -2040 2041 0
-296 -2040 2041 0
-2041 -326 327 0
327 -2041 2042 0
-326 -2041 2042 0
-2042 -327 326 0
326 -2042 2043 0
-327 -2042 2043 0
-2043 -356 357 0
357 -2043 2044 0
-356 -2043 2044 0
-2044 -357 356 0
356 -2044 2045 0
-357 -2044 2045 0
-2045 -387 415 0
415 -2045 2046 0
-387 -2045 2046 0
-2046 -388 416 0
416 -2046 2047 0
-388 -2046 2047 0
-2047 -389 417 0
417 -2047 2048 0
-389 -2047 2048 0
-2048 -390 418 0
418 -2048 2049 0
-390 -2048 2049 0
-2049 -391 419 0
419 -2049 2050 0
-391 -2049 2050 0
-2050 -392 420 0
420 -2050 2051 0
-392 -2050 2051 0
-2051 -393 421 0
421 -2051 2052 0
-393 -2051 2052 0
-2052 -394 422 0
2053 0
-833 834 0
834 -2053 2054 0
-833 -2053 2054 0
-2054 -834 833 0
833 -2054 2055 0
-834 -2054 2055 0
-2055 -874 875 0
875 -2055 2056 0
-874 -2055 2056 0
-2056 -875 874 0
874 -2056 2057 0
-875 -2056 2057 0
-2057 -915 916 0
916 -2057 2058 0
-915 -2057 2058 0
-2058 -916 915 0
915 -2058 2059 0
-916 -2058 2059 0
-2059 -956 957 0
957 -2059 2060 0
-956 -2059 2060 0
-2060 -957 956 0
956 -2060 2061 0
-957 -2060 2061 0
-2061 -997 998 0
998 -2061 2062 0
-997 -2061 2062 0
-2062 -998 997 0
997 -2062 2063 0
-998 -2062 2063 0
-2063 -1074 1078 0
1078 -2063 2064 0
-1074 -2063 2064 0
-2064 -1078 1074 0
1074 -2064 2065 0
-1078 -2064 2065 0
-2065 -1075 1079 0
1079 -2065 2066 0
-1075 -2065 2066 0
-2066 -1079 1075 0
1075 -2066 2067 0
-1079 -2066 2067 0
-2067 -1076 1080 0
1080 -2067 2068 0
-1076 -2067 2068 0
-2068 -1080 1076 0
1076 -2068 2069 0
-1080 -2068 2069 0
-2069 -1077 1081 0
1081 -2069 2070 0
-1077 -2069 2070 0
-2070 -1081 1077 0
1077 -2070 2071 0
-1081 -2070 2071 0
-2071 -12 13 0
13 -2071 2072 0
-12 -2071 2072 0
-2072 -13 12 0
12 -2072 2073 0
-13 -2072 2073 0
-2073 -51 52 0
52 -2073 2074 0
-51 -2073 2074 0
-2074 -52 51 0
51 -2074 2075 0
-52 -2074 2075 0
-2075 -89 90 0
90 -2075 2076 0
-89 -2075 2076 0
-2076 -90 89 0
89 -2076 2077 0
-90 -2076 2077 0
-2077 -126 127 0
127 -2077 2078 0
-126 -2077 2078 0
-2078 -127 126 0
126 -2078 2079 0
-127 -2078 2079 0
-2079 -162 163 0
163 -2079 2080 0
-162 -2079 2080 0
-2080 -163 162 0
162 -2080 2081 0
-163 -2080 2081 0
-2081 -197 198 0
198 -2081 2082 0
-197 -2081 2082 0
-2082 -198 197 0
197 -2082 2083 0
-198 -2082 2083 0
-2083 -231 232 0
232 -2083 2084 0
-231 -2083 2084 0
-2084 -232 231 0
231 -2084 2085 0
-232 -2084 2085 0
-2085 -264 265 0
265 -2085 2086 0
-264 -2085 2086 0
-2086 -265 264 0
264 -2086 2087 0
-265 -2086 2087 0
-2087 -296 297 0
297 -2087 2088 0
-296 -2087 2088 0
-2088 -297 296 0
296 -2088 2089 0
-297 -2088 2089 0
-2089 -327 328 0
328 -2089 2090 0
-327 -2089 2090 0
-2090 -328 327 0
327 -2090 2091 0
-328 -2090 2091 0
-2091 -357 358 0
358 -2091 2092 0
-357 -2091 2092 0
-2092 -358 357 0
357 -2092 2093 0
-358 -2092 2093 0
-2093 -386 387 0
387 -2093 2094 0
-386 -2093 2094 0
-2094 -387 386 0
386 -2094 2095 0
-387 -2094 2095 0
-2095 -416 443 0
443 -2095 2096 0
-416 -2095 2096 0
-2096 -417 444 0
444 -2096 2097 0
-417 -2096 2097 0
-2097 -418 445 0
445 -2097 2098 0
-418 -2097 2098 0
-2098 -419 446 0
446 -2098 2099 0
-419 -2098 2099 0
-2099 -420 447 0
447 -2099 2100 0
-420 -2099 2100 0
-2100 -421 448 0
2101 0
-834 835 0
835 -2101 2102 0
-834 -2101 2102 0
-2102 -835 834 0
834 -2102 2103 0
-835 -2102 2103 0
-2103 -875 876 0
876 -2103 2104 0
-875 -2103 2104 0
-2104 -876 875 0
875 -2104 2105 0
-876 -2104 2105 0
-2105 -916 917 0
917 -2105 2106 0
-916 -2105 2106 0
-2106 -917 916 0
916 -2106 2107 0
-917 -2106 2107 0
-2107 -957 958 0
958 -2107 2108 0
-957 -2107 2108 0
-2108 -958 957 0
957 -2108 2109 0
-958 -2108 2109 0
-2109 -998 999 0
999 -2109 2110 0
-998 -2109 2110 0
-2110 -999 998 0
998 -2110 2111 0
-999 -2110 2111 0
-2111 -1078 1082 0
1082 -2111 2112 0
-1078 -2111 2112 0
-2112 -1082 1078 0
1078 -2112 2113 0
-1082 -2112 2113 0
-2113 -1079 1083 0
1083 -2113 2114 0
-1079 -2113 2114 0
-2114 -1083 1079 0
1079 -2114 2115 0
-1083 -2114 2115 0
-2115 -1080 1084 0
1084 -2115 2116 0
-1080 -2115 2116 0
-2116 -1084 1080 0
1080 -2116 2117 0
-1084 -2116 2117 0
-2117 -1081 1085 0
1085 -2117 2118 0
-1081 -2117 2118 0
-2118 -1085 1081 0
1081 -2118 2119 0
-1085 -2118 2119 0
-2119 -13 14 0
14 -2119 2120 0
-13 -2119 2120 0
-2120 -14 13 0
13 -2120 2121 0
-14 -2120 2121 0
-2121 -52 53 0
53 -2121 2122 0
-52 -2121 2122 0
-2122 -53 52 0
52 -2122 2123 0
-53 -2122 2123 0
-2123 -90 91 0
91 -2123 2124 0
-90 -2123 2124 0
-2124 -91 90 0
90 -2124 2125 0
-91 -2124 2125 0
-2125 -127 128 0
128 -2125 2126 0
-127 -2125 2126 0
-2126 -128 127 0
127 -2126 2127 0
-128 -2126 2127 0
-2127 -163 164 0
164 -2127 2128 0
-163 -2127 2128 0
-2128 -164 163 0
163 -2128 2129 0
-164 -2128 2129 0
-2129 -198 199 0
199 -2129 2130 0
-198 -2129 2130 0
-2130 -199 198 0
198 -2130 2131 0
-199 -2130 2131 0
-2131 -232 233 0
233 -2131 2132 0
-232 -2131 2132 0
-2132 -233 232 0
232 -2132 2133 0
-233 -2132 2133 0
-2133 -265 266 0
266 -2133 2134 0
-265 -2133 2134 0
-2134 -266 265 0
265 -2134 2135 0
-266 -2134 2135 0
-2135 -297 298 0
298 -2135 2136 0
-297 -2135 2136 0
-2136 -298 297 0
297 -2136 2137 0
-298 -2136 2137 0
-2137 -328 329 0
329 -2137 2138 0
-328 -2137 2138 0
-2138 -329 328 0
328 -2138 2139 0
-329 -2138 2139 0
-2139 -358 359 0
359 -2139 2140 0
-358 -2139 2140 0
-2140 -359 358 0
358 -2140 2141 0
-359 -2140 2141 0
-2141 -387 388 0
388 -2141 2142 0
-387 -2141 2142 0
-2142 -388 387 0
387 -2142 2143 0
-388 -2142 2143 0
-2143 -415 416 0
416 -2143 2144 0
-415 -2143 2144 0
-2144 -416 415 0
415 -2144 2145 0
-416 -2144 2145 0
-2145 -444 470 0
470 -2145 2146 0
-444 -2145 2146 0
-2146 -445 471 0
471 -2146 2147 0
-445 -2146 2147 0
-2147 -446 472 0
472 -2147 2148 0
-446 -2147 2148 0
-2148 -447 473 0
2149 0
-835 836 0
836 -2149 2150 0
-835 -2149 2150 0
-2150 -836 835 0
835 -2150 2151 0
-836 -2150 2151 0
-2151 -876 877 0
877 -2151 2152 0
-876 -2151 2152 0
-2152 -877 876 0
876 -2152 2153 0
-877 -2152 2153 0
-2153 -917 918 0
918 -2153 2154 0
-917 -2153 2154 0
-2154 -918 917 0
917 -2154 2155 0
-918 -2154 2155 0
-2155 -958 959 0
959 -2155 2156 0
-958 -2155 2156 0
-2156 -959 958 0
958 -2156 2157 0
-959 -2156 2157 0
-2157 -999 1000 0
1000 -2157 2158 0
-999 -2157 2158 0
-2158 -1000 999 0
999 -2158 2159 0
-1000 -2158 2159 0
-2159 -1082 1086 0
1086 -2159 2160 0
-1082 -2159 2160 0
-2160 -1086 1082 0
1082 -2160 2161 0
-1086 -2160 2161 0
-2161 -1083 1087 0
1087 -2161 2162 0
-1083 -2161 2162 0
-2162 -1087 1083 0
1083 -2162 2163 0
-1087 -2162 2163 0
-2163 -1084 1088 0
1088 -2163 2164 0
-1084 -2163 2164 0
-2164 -1088 1084 0
1084 -2164 2165 0
-1088 -2164 2165 0
-2165 -1085 1089 0
1089 -2165 2166 0
-1085 -2165 2166 0
-2166 -1089 1085 0
1085 -2166 2167 0
-1089 -2166 2167 0
-2167 -14 15 0
15 -2167 2168 0
-14 -2167 2168 0
-2168 -15 14 0
14 -2168 2169 0
-15 -2168 2169 0
-2169 -53 54 0
54 -2169 2170 0
-53 -2169 2170 0
-2170 -54 53 0
53 -2170 2171 0
-54 -2170 2171 0
-2171 -91 92 0
92 -2171 2172 0
-91 -2171 2172 0
-2172 -92 91 0
91 -2172 2173 0
-92 -2172 2173 0
-2173 -128 129 0
129 -2173 2174 0
-128 -2173 2174 0
-2174 -129 128 0
128 -2174 2175 0
-129 -2174 2175 0
-2175 -164 165 0
165 -2175 2176 0
-164 -2175 2176 0
-2176 -165 164 0
164 -2176 2177 0
-165 -2176 2177 0
-2177 -199 200 0
200 -2177 2178 0
-199 -2177 2178 0
-2178 -200 199 0
199 -2178 2179 0
-200 -2178 2179 0
-2179 -233 234 0
234 -2179 2180 0
-233 -2179 2180 0
-2180 -234 233 0
233 -2180 2181 0
-234 -2180 2181 0
-2181 -266 267 0
267 -2181 2182 0
-266 -2181 2182 0
-2182 -267 266 0
266 -2182 2183 0
-267 -2182 2183 0
-2183 -298 299 0
299 -2183 2184 0
-298 -2183 2184 0
-2184 -299 298 0
298 -2184 2185 0
-299 -2184 2185 0
-2185 -329 330 0
330 -2185 2186 0
-329 -2185 2186 0
-2186 -330 329 0
329 -2186 2187 0
-330 -2186 2187 0
-2187 -359 360 0
360 -2187 2188 0
-359 -2187 2188 0
-2188 -360 359 0
359 -2188 2189 0
-360 -2188 2189 0
-2189 -388 389 0
389 -2189 2190 0
-388 -2189 2190 0
-2190 -389 388 0
388 -2190 2191 0
-389 -2190 2191 0
-2191 -416 417 0
417 -2191 2192 0
-416 -2191 2192 0
-2192 -417 416 0
416 -2192 2193 0
-417 -2192 2193 0
-2193 -443 444 0
444 -2193 2194 0
-443 -2193 2194 0
-2194 -444 443 0
443 -2194 2195 0
-444 -2194 2195 0
-2195 -471 496 0
496 -2195 2196 0
-471 -2195 2196 0
-2196 -472 497 0
2197 0
-836 837 0
837 -2197 2198 0
-836 -2197 2198 0
-2198 -837 836 0
836 -2198 2199 0
-837 -2198 2199 0
-2199 -877 878 0
878 -2199 2200 0
-877 -2199 2200 0
-2200 -878 877 0
877 -2200 2201 0
-878 -2200 2201 0
-2201 -918 919 0
919 -2201 2202 0
-918 -2201 2202 0
-2202 -919 918 0
918 -2202 2203 0
-919 -2202 2203 0
-2203 -959 960 0
960 -2203 2204 0
-959 -2203 2204 0
-2204 -960 959 0
959 -2204 2205 0
-960 -2204 2205 0
-2205 -1000 1001 0
1001 -2205 2206 0
-1000 -2205 2206 0
-2206 -1001 1000 0
1000 -2206 2207 0
-1001 -2206 2207 0
-2207 -1086 1090 0
1090 -2207 2208 0
-1086 -2207 2208 0
-2208 -1090 1086 0
1086 -2208 2209 0
-1090 -2208 2209 0
-2209 -1087 1091 0
1091 -2209 2210 0
-1087 -2209 2210 0
-2210 -1091 1087 0
1087 -2210 2211 0
-1091 -2210 2211 0
-2211 -1088 1092 0
1092 -2211 2212 0
-1088 -2211 2212 0
-2212 -1092 1088 0
1088 -2212 2213 0
-1092 -2212 2213 0
-2213 -1089 1093 0
1093 -2213 2214 0
-1089 -2213 2214 0
-2214 -1093 1089 0
1089 -2214 2215 0
-1093 -2214 2215 0
-2215 -15 16 0
16 -2215 2216 0
-15 -2215 2216 0
-2216 -16 15 0
15 -2216 2217 0
-16 -2216 2217 0
-2217 -54 55 0
55 -2217 2218 0
-54 -2217 2218 0
-2218 -55 54 0
54 -2218 2219 0
-55 -2218 2219 0
-2219 -92 93 0
93 -2219 2220 0
-92 -2219 2220 0
-2220 -93 92 0
92 -2220 2221 0
-93 -2220 2221 0
-2221 -129 130 0
130 -2221 2222 0
-129 -2221 2222 0
-2222 -130 129 0
129 -2222 2223 0
-130 -2222 2223 0
-2223 -165 166 0
166 -2223 2224 0
-165 -2223 2224 0
-2224 -166 165 0
165 -2224 2225 0
-166 -2224 2225 0
-2225 -200 201 0
201 -2225 2226 0
-200 -2225 2226 0
-2226 -201 200 0
200 -2226 2227 0
-201 -2226 2227 0
-2227 -234 235 0
235 -2227 2228 0
-234 -2227 2228 0
-2228 -235 234 0
234 -2228 2229 0
-235 -2228 2229 0
-2229 -267 268 0
268 -2229 2230 0
-267 -2229 2230 0
-2230 -268 267 0
267 -2230 2231 0
-268 -2230 2231 0
-2231 -299 300 0
300 -2231 2232 0
-299 -2231 2232 0
-2232 -300 299 0
299 -2232 2233 0
-300 -2232 2233 0
-2233 -330 331 0
331 -2233 2234 0
-330 -2233 2234 0
-2234 -331 330 0
330 -2234 2235 0
-331 -2234 2235 0
-2235 -360 361 0
361 -2235 2236 0
-360 -2235 2236 0
-2236 -361 360 0
360 -2236 2237 0
-361 -2236 2237 0
-2237 -389 390 0
390 -2237 2238 0
-389 -2237 2238 0
-2238 -390 389 0
389 -2238 2239 0
-390 -2238 2239 0
-2239 -417 418 0
418 -2239 2240 0
-417 -2239 2240 0
-2240 -418 417 0
417 -2240 2241 0
-418 -2240 2241 0
-2241 -444 445 0
445 -2241 2242 0
-444 -2241 2242 0
-2242 -445 444 0
444 -2242 2243 0
-445 -2242 2243 0
-2243 -470 471 0
471 -2243 2244 0
-470 -2243 2244 0
-2244 -471 470 0
2245 0
-837 838 0
838 -2245 2246 0
-837 -2245 2246 0
-2246 -838 837 0
837 -2246 2247 0
-838 -2246 2247 0
-2247 -878 879 0
879 -2247 2248 0
-878 -2247 2248 0
-2248 -879 878 0
878 -2248 2249 0
-879 -2248 2249 0
-2249 -919 920 0
920 -2249 2250 0
-919 -2249 2250 0
-2250 -920 919 0
919 -2250 2251 0
-920 -2250 2251 0
-2251 -960 961 0
961 -2251 2252 0
-960 -2251 2252 0
-2252 -961 960 0
960 -2252 2253 0
-961 -2252 2253 0
-2253 -1001 1002 0
1002 -2253 2254 0
-1001 -2253 2254 0
-2254 -1002 1001 0
1001 -2254 2255 0
-1002 -2254 2255 0
-2255 -1090 1094 0
1094 -2255 2256 0
-1090 -2255 2256 0
-2256 -1094 1090 0
1090 -2256 2257 0
-1094 -2256 2257 0
-2257 -1091 1095 0
1095 -2257 2258 0
-1091 -2257 2258 0
-2258 -1095 1091 0
1091 -2258 2259 0
-1095 -2258 2259 0
-2259 -1092 1096 0
1096 -2259 2260 0
-1092 -2259 2260 0
-2260 -1096 1092 0
1092 -2260 2261 0
-1096 -2260 2261 0
-2261 -1093 1097 0
1097 -2261 2262 0
-1093 -2261 2262 0
-2262 -1097 1093 0
1093 -2262 2263 0
-1097 -2262 2263 0
-2263 -16 17 0
17 -2263 2264 0
-16 -2263 2264 0
-2264 -17 16 0
16 -2264 2265 0
-17 -2264 2265 0
-2265 -55 56 0
56 -2265 2266 0
-55 -2265 2266 0
-2266 -56 55 0
55 -2266 2267 0
-56 -2266 2267 0
-2267 -93 94 0
94 -2267 2268 0
-93 -2267 2268 0
-2268 -94 93 0
93 -2268 2269 0
-94 -2268 2269 0
-2269 -130 131 0
131 -2269 2270 0
-130 -2269 2270 0
-2270 -131 130 0
130 -2270 2271 0
-131 -2270 2271 0
-2271 -166 167 0
167 -2271 2272 0
-166 -2271 2272 0
-2272 -167 166 0
166 -2272 2273 0
-167 -2272 2273 0
-2273 -201 202 0
202 -2273 2274 0
-201 -2273 2274 0
-2274 -202 201 0
201 -2274 2275 0
-202 -2274 2275 0
-2275 -235 236 0
236 -2275 2276 0
-235 -2275 2276 0
-2276 -236 235 0
235 -2276 2277 0
-236 -2276 2277 0
-2277 -268 269 0
269 -2277 2278 0
-268 -2277 2278 0
-2278 -269 268 0
268 -2278 2279 0
-269 -2278 2279 0
-2279 -300 301 0
301 -2279 2280 0
-300 -2279 2280 0
-2280 -301 300 0
300 -2280 2281 0
-301 -2280 2281 0
-2281 -331 332 0
332 -2281 2282 0
-331 -2281 2282 0
-2282 -332 331 0
331 -2282 2283 0
-332 -2282 2283 0
-2283 -361 362 0
362 -2283 2284 0
-361 -2283 2284 0
-2284 -362 361 0
361 -2284 2285 0
-362 -2284 2285 0
-2285 -390 391 0
391 -2285 2286 0
-390 -2285 2286 0
-2286 -391 390 0
390 -2286 2287 0
-391 -2286 2287 0
-2287 -418 419 0
419 -2287 2288 0
-418 -2287 2288 0
-2288 -419 418 0
418 -2288 2289 0
-419 -2288 2289 0
-2289 -445 446 0
446 -2289 2290 0
-445 -2289 2290 0
-2290 -446 445 0
445 -2290 2291 0
-446 -2290 2291 0
-2291 -471 472 0
472 -2291 2292 0
-471 -2291 2292 0
-2292 -472 471 0
2293 0
-838 839 0
839 -2293 2294 0
-838 -2293 2294 0
-2294 -839 838 0
838 -2294 2295 0
-839 -2294 2295 0
-2295 -879 880 0
880 -2295 2296 0
-879 -2295 2296 0
-2296 -880 879 0
879 -2296 2297 0
-880 -2296 2297 0
-2297 -920 921 0
921 -2297 2298 0
-920 -2297 2298 0
-2298 -921 920 0
920 -2298 2299 0
-921 -2298 2299 0
-2299 -961 962 0
962 -2299 2300 0
-961 -2299 2300 0
-2300 -962 961 0
961 -2300 2301 0
-962 -2300 2301 0
-2301 -1002 1003 0
1003 -2301 2302 0
-1002 -2301 2302 0
-2302 -1003 1002 0
1002 -2302 2303 0
-1003 -2302 2303 0
-2303 -1094 1098 0
1098 -2303 2304 0
-1094 -2303 2304 0
-2304 -1098 1094 0
1094 -2304 2305 0
-1098 -2304 2305 0
-2305 -1095 1099 0
1099 -2305 2306 0
-1095 -2305 2306 0
-2306 -1099 1095 0
1095 -2306 2307 0
-1099 -2306 2307 0
-2307 -1096 1100 0
1100 -2307 2308 0
-1096 -2307 2308 0
-2308 -1100 1096 0
1096 -2308 2309 0
-1100 -2308 2309 0
-2309 -1097 1101 0
1101 -2309 2310 0
-1097 -2309 2310 0
-2310 -1101 1097 0
1097 -2310 2311 0
-1101 -2310 2311 0
-2311 -17 18 0
18 -2311 2312 0
-17 -2311 2312 0
-2312 -18 17 0
17 -2312 2313 0
-18 -2312 2313 0
-2313 -56 57 0
57 -2313 2314 0
-56 -2313 2314 0
-2314 -57 56 0
56 -2314 2315 0
-57 -2314 2315 0
-2315 -94 95 0
95 -2315 2316 0
-94 -2315 2316 0
-2316 -95 94 0
94 -2316 2317 0
-95 -2316 2317 0
-2317 -131 132 0
132 -2317 2318 0
-131 -2317 2318 0
-2318 -132 131 0
131 -2318 2319 0
-132 -2318 2319 0
-2319 -167 168 0
168 -2319 2320 0
-167 -2319 2320 0
-2320 -168 167 0
167 -2320 2321 0
-168 -2320 2321 0
-2321 -202 203 0
203 -2321 2322 0
-202 -2321 2322 0
-2322 -203 202 0
202 -2322 2323 0
-203 -2322 2323 0
-2323 -236 237 0
237 -2323 2324 0
-236 -2323 2324 0
-2324 -237 236 0
236 -2324 2325 0
-237 -2324 2325 0
-2325 -269 270 0
270 -2325 2326 0
-269 -2325 2326 0
-2326 -270 269 0
269 -2326 2327 0
-270 -2326 2327 0
-2327 -301 302 0
302 -2327 2328 0
-301 -2327 2328 0
-2328 -302 301 0
301 -2328 2329 0
-302 -2328 2329 0
-2329 -332 333 0
333 -2329 2330 0
-332 -2329 2330 0
-2330 -333 332 0
332 -2330 2331 0
-333 -2330 2331 0
-2331 -362 363 0
363 -2331 2332 0
-362 -2331 2332 0
-2332 -363 362 0
362 -2332 2333 0
-363 -2332 2333 0
-2333 -391 392 0
392 -2333 2334 0
-391 -2333 2334 0
-2334 -392 391 0
391 -2334 2335 0
-392 -2334 2335 0
-2335 -419 420 0
420 -2335 2336 0
-419 -2335 2336 0
-2336 -420 419 0
419 -2336 2337 0
-420 -2336 2337 0
-2337 -446 447 0
447 -2337 2338 0
-446 -2337 2338 0
-2338 -447 446 0
446 -2338 2339 0
-447 -2338 2339 0
-2339 -472 473 0
473 -2339 2340 0
-472 -2339 2340 0
-2340 -473 472 0
2341 0
-839 840 0
840 -2341 2342 0
-839 -2341 2342 0
-2342 -840 839 0
839 -2342 2343 0
-840 -2342 2343 0
-2343 -880 881 0
881 -2343 2344 0
-880 -2343 2344 0
-2344 -881 880 0
880 -2344 2345 0
-881 -2344 2345 0
-2345 -921 922 0
922 -2345 2346 0
-921 -2345 2346 0
-2346 -922 921 0
921 -2346 2347 0
-922 -2346 2347 0
-2347 -962 963 0
963 -2347 2348 0
-962 -2347 2348 0
-2348 -963 962 0
962 -2348 2349 0
-963 -2348 2349 0
-2349 -1003 1004 0
1004 -2349 2350 0
-1003 -2349 2350 0
-2350 -1004 1003 0
1003 -2350 2351 0
-1004 -2350 2351 0
-2351 -1098 1102 0
1102 -2351 2352 0
-1098 -2351 2352 0
-2352 -1102 1098 0
1098 -2352 2353 0
-1102 -2352 2353 0
-2353 -1099 1103 0
1103 -2353 2354 0
-1099 -2353 2354 0
-2354 -1103 1099 0
1099 -2354 2355 0
-1103 -2354 2355 0
-2355 -1100 1104 0
1104 -2355 2356 0
-1100 -2355 2356 0
-2356 -1104 1100 0
1100 -2356 2357 0
-1104 -2356 2357 0
-2357 -1101 1105 0
1105 -2357 2358 0
-1101 -2357 2358 0
-2358 -1105 1101 0
1101 -2358 2359 0
-1105 -2358 2359 0
-2359 -18 19 0
19 -2359 2360 0
-18 -2359 2360 0
-2360 -19 18 0
18 -2360 2361 0
-19 -2360 2361 0
-2361 -57 58 0
58 -2361 2362 0
-57 -2361 2362 0
-2362 -58 57 0
57 -2362 2363 0
-58 -2362 2363 0
-2363 -95 96 0
96 -2363 2364 0
-95 -2363 2364 0
-2364 -96 95 0
95 -2364 2365 0
-96 -2364 2365 0
-2365 -132 133 0
133 -2365 2366 0
-132 -2365 2366 0
-2366 -133 132 0
132 -2366 2367 0
-133 -2366 2367 0
-2367 -168 169 0
169 -2367 2368 0
-168 -2367 2368 0
-2368 -169 168 0
168 -2368 2369 0
-169 -2368 2369 0
-2369 -203 204 0
204 -2369 2370 0
-203 -2369 2370 0
-2370 -204 203 0
203 -2370 2371 0
-204 -2370 2371 0
-2371 -237 238 0
238 -2371 2372 0
-237 -2371 2372 0
-2372 -238 237 0
237 -2372 2373 0
-238 -2372 2373 0
-2373 -270 271 0
271 -2373 2374 0
-270 -2373 2374 0
-2374 -271 270 0
270 -2374 2375 0
-271 -2374 2375 0
-2375 -302 303 0
303 -2375 2376 0
-302 -2375 2376 0
-2376 -303 302 0
302 -2376 2377 0
-303 -2376 2377 0
-2377 -333 334 0
334 -2377 2378 0
-333 -2377 2378 0
-2378 -334 333 0
333 -2378 2379 0
-334 -2378 2379 0
-2379 -363 364 0
364 -2379 2380 0
-363 -2379 2380 0
-2380 -364 363 0
363 -2380 2381 0
-364 -2380 2381 0
-2381 -392 393 0
393 -2381 2382 0
-392 -2381 2382 0
-2382 -393 392 0
392 -2382 2383 0
-393 -2382 2383 0
-2383 -420 421 0
421 -2383 2384 0
-420 -2383 2384 0
-2384 -421 420 0
420 -2384 2385 0
-421 -2384 2385 0
-2385 -447 448 0
448 -2385 2386 0
-447 -2385 2386 0
-2386 -448 447 0
447 -2386 2387 0
-448 -2386 2387 0
-2387 -473 474 0
474 -2387 2388 0
-473 -2387 2388 0
-2388 -474 473 0
2389 0
-840 841 0
841 -2389 2390 0
-840 -2389 2390 0
-2390 -841 840 0
840 -2390 2391 0
-841 -2390 2391 0
-2391 -881 882 0
882 -2391 2392 0
-881 -2391 2392 0
-2392 -882 881 0
881 -2392 2393 0
-882 -2392 2393 0
-2393 -922 923 0
923 -2393 2394 0
-922 -2393 2394 0
-2394 -923 922 0
922 -2394 2395 0
-923 -2394 2395 0
-2395 -963 964 0
964 -2395 2396 0
-963 -2395 2396 0
-2396 -964 963 0
963 -2396 2397 0
-964 -2396 2397 0
-2397 -1004 1005 0
1005 -2397 2398 0
-1004 -2397 2398 0
-2398 -1005 1004 0
1004 -2398 2399 0
-1005 -2398 2399 0
-2399 -1102 1106 0
1106 -2399 2400 0
-1102 -2399 2400 0
-2400 -1106 1102 0
1102 -2400 2401 0
-1106 -2400 2401 0
-2401 -1103 1107 0
1107 -2401 2402 0
-1103 -2401 2402 0
-2402 -1107 1103 0
1103 -2402 2403 0
-1107 -2402 2403 0
-2403 -1104 1108 0
1108 -2403 2404 0
-1104 -2403 2404 0
-2404 -1108 1104 0
1104 -2404 2405 0
-1108 -2404 2405 0
-2405 -1105 1109 0
1109 -2405 2406 0
-1105 -2405 2406 0
-2406 -1109 1105 0
1105 -2406 2407 0
-1109 -2406 2407 0
-2407 -19 20 0
20 -2407 2408 0
-19 -2407 2408 0
-2408 -20 19 0
19 -2408 2409 0
-20 -2408 2409 0
-2409 -58 59 0
59 -2409 2410 0
-58 -2409 2410 0
-2410 -59 58 0
58 -2410 2411 0
-59 -2410 2411 0
-2411 -96 97 0
97 -2411 2412 0
-96 -2411 2412 0
-2412 -97 96 0
96 -2412 2413 0
-97 -2412 2413 0
-2413 -133 134 0
134 -2413 2414 0
-133 -2413 2414 0
-2414 -134 133 0
133 -2414 2415 0
-134 -2414 2415 0
-2415 -169 170 0
170 -2415 2416 0
-169 -2415 2416 0
-2416 -170 169 0
169 -2416 2417 0
-170 -2416 2417 0
-2417 -204 205 0
205 -2417 2418 0
-204 -2417 2418 0
-2418 -205 204 0
204 -2418 2419 0
-205 -2418 2419 0
-2419 -238 239 0
239 -2419 2420 0
-238 -2419 2420 0
-2420 -239 238 0
238 -2420 2421 0
-239 -2420 2421 0
-2421 -271 272 0
272 -2421 2422 0
-271 -2421 2422 0
-2422 -272 271 0
271 -2422 2423 0
-272 -2422 2423 0
-2423 -303 304 0
304 -2423 2424 0
-303 -2423 2424 0
-2424 -304 303 0
303 -2424 2425 0
-304 -2424 2425 0
-2425 -334 335 0
335 -2425 2426 0
-334 -2425 2426 0
-2426 -335 334 0
334 -2426 2427 0
-335 -2426 2427 0
-2427 -364 365 0
365 -2427 2428 0
-364 -2427 2428 0
-2428 -365 364 0
364 -2428 2429 0
-365 -2428 2429 0
-2429 -393 394 0
394 -2429 2430 0
-393 -2429 2430 0
-2430 -394 393 0
393 -2430 2431 0
-394 -2430 2431 0
-2431 -421 422 0
422 -2431 2432 0
-421 -2431 2432 0
-2432 -422 421 0
421 -2432 2433 0
-422 -2432 2433 0
-2433 -448 449 0
449 -2433 2434 0
-448 -2433 2434 0
-2434 -449 448 0
448 -2434 2435 0
-449 -2434 2435 0
-2435 -474 475 0
475 -2435 2436 0
-474 -2435 2436 0
-2436 -475 474 0
2437 0
-841 842 0
842 -2437 2438 0
-841 -2437 2438 0
-2438 -842 841 0
841 -2438 2439 0
-842 -2438 2439 0
-2439 -882 883 0
883 -2439 2440 0
-882 -2439 2440 0
-2440 -883 882 0
882 -2440 2441 0
-883 -2440 2441 0
-2441 -923 924 0
924 -2441 2442 0
-923 -2441 2442 0
-2442 -924 923 0
923 -2442 2443 0
-924 -2442 2443 0
-2443 -964 965 0
965 -2443 2444 0
-964 -2443 2444 0
-2444 -965 964 0
964 -2444 2445 0
-965 -2444 2445 0
-2445 -1005 1006 0
1006 -2445 2446 0
-1005 -2445 2446 0
-2446 -1006 1005 0
1005 -2446 2447 0
-1006 -2446 2447 0
-2447 -1106 1110 0
1110 -2447 2448 0
-1106 -2447 2448 0
-2448 -1110 1106 0
1106 -2448 2449 0
-1110 -2448 2449 0
-2449 -1107 1111 0
1111 -2449 2450 0
-1107 -2449 2450 0
-2450 -1111 1107 0
1107 -2450 2451 0
-1111 -2450 2451 0
-2451 -1108 1112 0
1112 -2451 2452 0
-1108 -2451 2452 0
-2452 -1112 1108 0
1108 -2452 2453 0
-1112 -2452 2453 0
-2453 -1109 1113 0
1113 -2453 2454 0
-1109 -2453 2454 0
-2454 -1113 1109 0
1109 -2454 2455 0
-1113 -2454 2455 0
-2455 -20 21 0
21 -2455 2456 0
-20 -2455 2456 0
-2456 -21 20 0
20 -2456 2457 0
-21 -2456 2457 0
-2457 -59 60 0
60 -2457 2458 0
-59 -2457 2458 0
-2458 -60 59 0
59 -2458 2459 0
-60 -2458 2459 0
-2459 -97 98 0
98 -2459 2460 0
-97 -2459 2460 0
-2460 -98 97 0
97 -2460 2461 0
-98 -2460 2461 0
-2461 -134 135 0
135 -2461 2462 0
-134 -2461 2462 0
-2462 -135 134 0
134 -2462 2463 0
-135 -2462 2463 0
-2463 -170 171 0
171 -2463 2464 0
-170 -2463 2464 0
-2464 -171 170 0
170 -2464 2465 0
-171 -2464 2465 0
-2465 -205 206 0
206 -2465 2466 0
-205 -2465 2466 0
-2466 -206 205 0
205 -2466 2467 0
-206 -2466 2467 0
-2467 -239 240 0
240 -2467 2468 0
-239 -2467 2468 0
-2468 -240 239 0
239 -2468 2469 0
-240 -2468 2469 0
-2469 -272 273 0
273 -2469 2470 0
-272 -2469 2470 0
-2470 -273 272 0
272 -2470 2471 0
-273 -2470 2471 0
-2471 -304 305 0
305 -2471 2472 0
-304 -2471 2472 0
-2472 -305 304 0
304 -2472 2473 0
-305 -2472 2473 0
-2473 -335 336 0
336 -2473 2474 0
-335 -2473 2474 0
-2474 -336 335 0
335 -2474 2475 0
-336 -2474 2475 0
-2475 -365 366 0
366 -2475 2476 0
-365 -2475 2476 0
-2476 -366 365 0
365 -2476 2477 0
-366 -2476 2477 0
-2477 -394 395 0
395 -2477 2478 0
-394 -2477 2478 0
-2478 -395 394 0
394 -2478 2479 0
-395 -2478 2479 0
-2479 -422 423 0
423 -2479 2480 0
-422 -2479 2480 0
-2480 -423 422 0
422 -2480 2481 0
-423 -2480 2481 0
-2481 -449 450 0
450 -2481 2482 0
-449 -2481 2482 0
-2482 -450 449 0
449 -2482 2483 0
-450 -2482 2483 0
-2483 -475 476 0
476 -2483 2484 0
-475 -2483 2484 0
-2484 -476 475 0
2485 0
-842 843 0
843 -2485 2486 0
-842 -2485 2486 0
-2486 -843 842 0
842 -2486 2487 0
-843 -2486 2487 0
-2487 -883 884 0
884 -2487 2488 0
-883 -2487 2488 0
-2488 -884 883 0
883 -2488 2489 0
-884 -2488 2489 0
-2489 -924 925 0
925 -2489 2490 0
-924 -2489 2490 0
-2490 -925 924 0
924 -2490 2491 0
-925 -2490 2491 0
-2491 -965 966 0
966 -2491 2492 0
-965 -2491 2492 0
-2492 -966 965 0
965 -2492 2493 0
-966 -2492 2493 0
-2493 -1006 1007 0
1007 -2493 2494 0
-1006 -2493 2494 0
-2494 -1007 1006 0
1006 -2494 2495 0
-1007 -2494 2495 0
-2495 -1110 1114 0
1114 -2495 2496 0
-1110 -2495 2496 0
-2496 -1114 1110 0
1110 -2496 2497 0
-1114 -2496 2497 0
-2497 -1111 1115 0
1115 -2497 2498 0
-1111 -2497 2498 0
-2498 -1115 1111 0
1111 -2498 2499 0
-1115 -2498 2499 0
-2499 -1112 1116 0
1116 -2499 2500 0
-1112 -2499 2500 0
-2500 -1116 1112 0
1112 -2500 2501 0
-1116 -2500 2501 0
-2501 -1113 1117 0
1117 -2501 2502 0
-1113 -2501 2502 0
-2502 -1117 1113 0
1113 -2502 2503 0
-1117 -2502 2503 0
-2503 -21 22 0
22 -2503 2504 0
-21 -2503 2504 0
-2504 -22 21 0
21 -2504 2505 0
-22 -2504 2505 0
-2505 -60 61 0
61 -2505 2506 0
-60 -2505 2506 0
-2506 -61 60 0
60 -2506 2507 0
-61 -2506 2507 0
-2507 -98 99 0
99 -2507 2508 0
-98 -2507 2508 0
-2508 -99 98 0
98 -2508 2509 0
-99 -2508 2509 0
-2509 -135 136 0
136 -2509 2510 0
-135 -2509 2510 0
-2510 -136 135 0
135 -2510 2511 0
-136 -2510 2511 0
-2511 -171 172 0
172 -2511 2512 0
-171 -2511 2512 0
-2512 -172 171 0
171 -2512 2513 0
-172 -2512 2513 0
-2513 -206 207 0
207 -2513 2514 0
-206 -2513 2514 0
-2514 -207 206 0
206 -2514 2515 0
-207 -2514 2515 0
-2515 -240 241 0
241 -2515 2516 0
-240 -2515 2516 0
-2516 -241 240 0
240 -2516 2517 0
-241 -2516 2517 0
-2517 -273 274 0
274 -2517 2518 0
-273 -2517 2518 0
-2518 -274 273 0
273 -2518 2519 0
-274 -2518 2519 0
-2519 -305 306 0
306 -2519 2520 0
-305 -2519 2520 0
-2520 -306 305 0
305 -2520 2521 0
-306 -2520 2521 0
-2521 -336 337 0
337 -2521 2522 0
-336 -2521 2522 0
-2522 -337 336 0
336 -2522 2523 0
-337 -2522 2523 0
-2523 -366 367 0
367 -2523 2524 0
-366 -2523 2524 0
-2524 -367 366 0
366 -2524 2525 0
-367 -2524 2525 0
-2525 -395 396 0
396 -2525 2526 0
-395 -2525 2526 0
-2526 -396 395 0
395 -2526 2527 0
-396 -2526 2527 0
-2527 -423 424 0
424 -2527 2528 0
-423 -2527 2528 0
-2528 -424 423 0
423 -2528 2529 0
-424 -2528 2529 0
-2529 -450 451 0
451 -2529 2530 0
-450 -2529 2530 0
-2530 -451 450 0
450 -2530 2531 0
-451 -2530 2531 0
-2531 -476 477 0
477 -2531 2532 0
-476 -2531 2532 0
-2532 -477 476 0
2533 0
-843 844 0
844 -2533 2534 0
-843 -2533 2534 0
-2534 -844 843 0
843 -2534 2535 0
-844 -2534 2535 0
-2535 -884 885 0
885 -2535 2536 0
-884 -2535 2536 0
-2536 -885 884 0
884 -2536 2537 0
-885 -2536 2537 0
-2537 -925 926 0
926 -2537 2538 0
-925 -2537 2538 0
-2538 -926 925 0
925 -2538 2539 0
-926 -2538 2539 0
-2539 -966 967 0
967 -2539 2540 0
-966 -2539 2540 0
-2540 -967 966 0
966 -2540 2541 0
-967 -2540 2541 0
-2541 -1007 1008 0
1008 -2541 2542 0
-1007 -2541 2542 0
-2542 -1008 1007 0
1007 -2542 2543 0
-1008 -2542 2543 0
-2543 -1114 1118 0
1118 -2543 2544 0
-1114 -2543 2544 0
-2544 -1118 1114 0
1114 -2544 2545 0
-1118 -2544 2545 0
-2545 -1115 1119 0
1119 -2545 2546 0
-1115 -2545 2546 0
-2546 -1119 1115 0
1115 -2546 2547 0
-1119 -2546 2547 0
-2547 -1116 1120 0
1120 -2547 2548 0
-1116 -2547 2548 0
-2548 -1120 1116 0
1116 -2548 2549 0
-1120 -2548 2549 0
-2549 -1117 1121 0
1121 -2549 2550 0
-1117 -2549 2550 0
-2550 -1121 1117 0
1117 -2550 2551 0
-1121 -2550 2551 0
-2551 -22 23 0
23 -2551 2552 0
-22 -2551 2552 0
-2552 -23 22 0
22 -2552 2553 0
-23 -2552 2553 0
-2553 -61 62 0
62 -2553 2554 0
-61 -2553 2554 0
-2554 -62 61 0
61 -2554 2555 0
-62 -2554 2555 0
-2555 -99 100 0
100 -2555 2556 0
-99 -2555 2556 0
-2556 -100 99 0
99 -2556 2557 0
-100 -2556 2557 0
-2557 -136 137 0
137 -2557 2558 0
-136 -2557 2558 0
-2558 -137 136 0
136 -2558 2559 0
-137 -2558 2559 0
-2559 -172 173 0
173 -2559 2560 0
-172 -2559 2560 0
-2560 -173 172 0
172 -2560 2561 0
-173 -2560 2561 0
-2561 -207 208 0
208 -2561 2562 0
-207 -2561 2562 0
-2562 -208 207 0
207 -2562 2563 0
-208 -2562 2563 0
-2563 -241 242 0
242 -2563 2564 0
-241 -2563 2564 0
-2564 -242 241 0
241 -2564 2565 0
-242 -2564 2565 0
-2565 -274 275 0
275 -2565 2566 0
-274 -2565 2566 0
-2566 -275 274 0
274 -2566 2567 0
-275 -2566 2567 0
-2567 -306 307 0
307 -2567 2568 0
-306 -2567 2568 0
-2568 -307 306 0
306 -2568 2569 0
-307 -2568 2569 0
-2569 -337 338 0
338 -2569 2570 0
-337 -2569 2570 0
-2570 -338 337 0
337 -2570 2571 0
-338 -2570 2571 0
-2571 -367 368 0
368 -2571 2572 0
-367 -2571 2572 0
-2572 -368 367 0
367 -2572 2573 0
-368 -2572 2573 0
-2573 -396 397 0
397 -2573 2574 0
-396 -2573 2574 0
-2574 -397 396 0
396 -2574 2575 0
-397 -2574 2575 0
-2575 -424 425 0
425 -2575 2576 0
-424 -2575 2576 0
-2576 -425 424 0
424 -2576 2577 0
-425 -2576 2577 0
-2577 -451 452 0
452 -2577 2578 0
-451 -2577 2578 0
-2578 -452 451 0
451 -2578 2579 0
-452 -2578 2579 0
-2579 -477 478 0
478 -2579 2580 0
-477 -2579 2580 0
-2580 -478 477 0
2581 0
-844 845 0
845 -2581 2582 0
-844 -2581 2582 0
-2582 -845 844 0
844 -2582 2583 0
-845 -2582 2583 0
-2583 -885 886 0
886 -2583 2584 0
-885 -2583 2584 0
-2584 -886 885 0
885 -2584 2585 0
-886 -2584 2585 0
-2585 -926 927 0
927 -2585 2586 0
-926 -2585 2586 0
-2586 -927 926 0
926 -2586 2587 0
-927 -2586 2587 0
-2587 -967 968 0
968 -2587 2588 0
-967 -2587 2588 0
-2588 -968 967 0
967 -2588 2589 0
-968 -2588 2589 0
-2589 -1008 1009 0
1009 -2589 2590 0
-1008 -2589 2590 0
-2590 -1009 1008 0
1008 -2590 2591 0
-1009 -2590 2591 0
-2591 -1118 1122 0
1122 -2591 2592 0
-1118 -2591 2592 0
-2592 -1122 1118 0
1118 -2592 2593 0
-1122 -2592 2593 0
-2593 -1119 1123 0
1123 -2593 2594 0
-1119 -2593 2594 0
-2594 -1123 1119 0
1119 -2594 2595 0
-1123 -2594 2595 0
-2595 -1120 1124 0
1124 -2595 2596 0
-1120 -2595 2596 0
-2596 -1124 1120 0
1120 -2596 2597 0
-1124 -2596 2597 0
-2597 -1121 1125 0
1125 -2597 2598 0
-1121 -2597 2598 0
-2598 -1125 1121 0
1121 -2598 2599 0
-1125 -2598 2599 0
-2599 -23 24 0
24 -2599 2600 0
-23 -2599 2600 0
-2600 -24 23 0
23 -2600 2601 0
-24 -2600 2601 0
-2601 -62 63 0
63 -2601 2602 0
-62 -2601 2602 0
-2602 -63 62 0
62 -2602 2603 0
-63 -2602 2603 0
-2603 -100 101 0
101 -2603 2604 0
-100 -2603 2604 0
-2604 -101 100 0
100 -2604 2605 0
-101 -2604 2605 0
-2605 -137 138 0
138 -2605 2606 0
-137 -2605 2606 0
-2606 -138 137 0
137 -2606 2607 0
-138 -2606 2607 0
-2607 -173 174 0
174 -2607 2608 0
-173 -2607 2608 0
-2608 -174 173 0
173 -2608 2609 0
-174 -2608 2609 0
-2609 -208 209 0
209 -2609 2610 0
-208 -2609 2610 0
-2610 -209 208 0
208 -2610 2611 0
-209 -2610 2611 0
-2611 -242 243 0
243 -2611 2612 0
-242 -2611 2612 0
-2612 -243 242 0
242 -2612 2613 0
-243 -2612 2613 0
-2613 -275 276 0
276 -2613 2614 0
-275 -2613 2614 0
-2614 -276 275 0
275 -2614 2615 0
-276 -2614 2615 0
-2615 -307 308 0
308 -2615 2616 0
-307 -2615 2616 0
-2616 -308 307 0
307 -2616 2617 0
-308 -2616 2617 0
-2617 -338 339 0
339 -2617 2618 0
-338 -2617 2618 0
-2618 -339 338 0
338 -2618 2619 0
-339 -2618 2619 0
-2619 -368 369 0
369 -2619 2620 0
-368 -2619 2620 0
-2620 -369 368 0
368 -2620 2621 0
-369 -2620 2621 0
-2621 -397 398 0
398 -2621 2622 0
-397 -2621 2622 0
-2622 -398 397 0
397 -2622 2623 0
-398 -2622 2623 0
-2623 -425 426 0
426 -2623 2624 0
-425 -2623 2624 0
-2624 -426 425 0
425 -2624 2625 0
-426 -2624 2625 0
-2625 -452 453 0
453 -2625 2626 0
-452 -2625 2626 0
-2626 -453 452 0
452 -2626 2627 0
-453 -2626 2627 0
-2627 -478 479 0
479 -2627 2628 0
-478 -2627 2628 0
-2628 -479 478 0
2629 0
-845 846 0
846 -2629 2630 0
-845 -2629 2630 0
-2630 -846 845 0
845 -2630 2631 0
-846 -2630 2631 0
-2631 -886 887 0
887 -2631 2632 0
-886 -2631 2632 0
-2632 -887 886 0
886 -2632 2633 0
-887 -2632 2633 0
-2633 -927 928 0
928 -2633 2634 0
-927 -2633 2634 0
-2634 -928 927 0
927 -2634 2635 0
-928 -2634 2635 0
-2635 -968 969 0
969 -2635 2636 0
-968 -2635 2636 0
-2636 -969 968 0
968 -2636 2637 0
-969 -2636 2637 0
-2637 -1009 1010 0
1010 -2637 2638 0
-1009 -2637 2638 0
-2638 -1010 1009 0
1009 -2638 2639 0
-1010 -2638 2639 0
-2639 -1122 1126 0
1126 -2639 2640 0
-1122 -2639 2640 0
-2640 -1126 1122 0
1122 -2640 2641 0
-1126 -2640 2641 0
-2641 -1123 1127 0
1127 -2641 2642 0
-1123 -2641 2642 0
-2642 -1127 1123 0
1123 -2642 2643 0
-1127 -2642 2643 0
-2643 -1124 1128 0
1128 -2643 2644 0
-1124 -2643 2644 0
-2644 -1128 1124 0
1124 -2644 2645 0
-1128 -2644 2645 0
-2645 -1125 1129 0
1129 -2645 2646 0
-1125 -2645 2646 0
-2646 -1129 1125 0
1125 -2646 2647 0
-1129 -2646 2647 0
-2647 -24 25 0
25 -2647 2648 0
-24 -2647 2648 0
-2648 -25 24 0
24 -2648 2649 0
-25 -2648 2649 0
-2649 -63 64 0
64 -2649 2650 0
-63 -2649 2650 0
-2650 -64 63 0
63 -2650 2651 0
-64 -2650 2651 0
-2651 -101 102 0
102 -2651 2652 0
-101 -2651 2652 0
-2652 -102 101 0
101 -2652 2653 0
-102 -2652 2653 0
-2653 -138 139 0
139 -2653 2654 0
-138 -2653 2654 0
-2654 -139 138 0
138 -2654 2655 0
-139 -2654 2655 0
-2655 -174 175 0
175 -2655 2656 0
-174 -2655 2656 0
-2656 -175 174 0
174 -2656 2657 0
-175 -2656 2657 0
-2657 -209 210 0
210 -2657 2658 0
-209 -2657 2658 0
-2658 -210 209 0
209 -2658 2659 0
-210 -2658 2659 0
-2659 -243 244 0
244 -2659 2660 0
-243 -2659 2660 0
-2660 -244 243 0
243 -2660 2661 0
-244 -2660 2661 0
-2661 -276 277 0
277 -2661 2662 0
-276 -2661 2662 0
-2662 -277 276 0
276 -2662 2663 0
-277 -2662 2663 0
-2663 -308 309 0
309 -2663 2664 0
-308 -2663 2664 0
-2664 -309 308 0
308 -2664 2665 0
-309 -2664 2665 0
-2665 -339 340 0
340 -2665 2666 0
-339 -2665 2666 0
-2666 -340 339 0
339 -2666 2667 0
-340 -2666 2667 0
-2667 -369 370 0
370 -2667 2668 0
-369 -2667 2668 0
-2668 -370 369 0
369 -2668 2669 0
-370 -2668 2669 0
-2669 -398 399 0
399 -2669 2670 0
-398 -2669 2670 0
-2670 -399 398 0
398 -2670 2671 0
-399 -2670 2671 0
-2671 -426 427 0
427 -2671 2672 0
-426 -2671 2672 0
-2672 -427 426 0
426 -2672 2673 0
-427 -2672 2673 0
-2673 -453 454 0
454 -2673 2674 0
-453 -2673 2674 0
-2674 -454 453 0
453 -2674 2675 0
-454 -2674 2675 0
-2675 -479 480 0
480 -2675 2676 0
-479 -2675 2676 0
-2676 -480 479 0
2677 0
-846 847 0
847 -2677 2678 0
-846 -2677 2678 0
-2678 -847 846 0
846 -2678 2679 0
-847 -2678 2679 0
-2679 -887 888 0
888 -2679 2680 0
-887 -2679 2680 0
-2680 -888 887 0
887 -2680 2681 0
-888 -2680 2681 0
-2681 -928 929 0
929 -2681 2682 0
-928 -2681 2682 0
-2682 -929 928 0
928 -2682 2683 0
-929 -2682 2683 0
-2683 -969 970 0
970 -2683 2684 0
-969 -2683 2684 0
-2684 -970 969 0
969 -2684 2685 0
-970 -2684 2685 0
-2685 -1010 1011 0
1011 -2685 2686 0
-1010 -2685 2686 0
-2686 -1011 1010 0
1010 -2686 2687 0
-1011 -2686 2687 0
-2687 -1126 1130 0
1130 -2687 2688 0
-1126 -2687 2688 0
-2688 -1130 1126 0
1126 -2688 2689 0
-1130 -2688 2689 0
-2689 -1127 1131 0
1131 -2689 2690 0
-1127 -2689 2690 0
-2690 -1131 1127 0
1127 -2690 2691 0
-1131 -2690 2691 0
-2691 -1128 1132 0
1132 -2691 2692 0
-1128 -2691 2692 0
-2692 -1132 1128 0
1128 -2692 2693 0
-1132 -2692 2693 0
-2693 -1129 1133 0
1133 -2693 2694 0
-1129 -2693 2694 0
-2694 -1133 1129 0
1129 -2694 2695 0
-1133 -2694 2695 0
-2695 -25 26 0
26 -2695 2696 0
-25 -2695 2696 0
-2696 -26 25 0
25 -2696 2697 0
-26 -2696 2697 0
-2697 -64 65 0
65 -2697 2698 0
-64 -2697 2698 0
-2698 -65 64 0
64 -2698 2699 0
-65 -2698 2699 0
-2699 -102 103 0
103 -2699 2700 0
-102 -2699 2700 0
-2700 -103 102 0
102 -2700 2701 0
-103 -2700 2701 0
-2701 -139 140 0
140 -2701 2702 0
-139 -2701 2702 0
-2702 -140 139 0
139 -2702 2703 0
-140 -2702 2703 0
-2703 -175 176 0
176 -2703 2704 0
-175 -2703 2704 0
-2704 -176 175 0
175 -2704 2705 0
-176 -2704 2705 0
-2705 -210 211 0
211 -2705 2706 0
-210 -2705 2706 0
-2706 -211 210 0
210 -2706 2707 0
-211 -2706 2707 0
-2707 -244 245 0
245 -2707 2708 0
-244 -2707 2708 0
-2708 -245 244 0
244 -2708 2709 0
-245 -2708 2709 0
-2709 -277 278 0
278 -2709 2710 0
-277 -2709 2710 0
-2710 -278 277 0
277 -2710 2711 0
-278 -2710 2711 0
-2711 -309 310 0
310 -2711 2712 0
-309 -2711 2712 0
-2712 -310 309 0
309 -2712 2713 0
-310 -2712 2713 0
-2713 -340 341 0
341 -2713 2714 0
-340 -2713 2714 0
-2714 -341 340 0
340 -2714 2715 0
-341 -2714 2715 0
-2715 -370 371 0
371 -2715 2716 0
-370 -2715 2716 0
-2716 -371 370 0
370 -2716 2717 0
-371 -2716 2717 0
-2717 -399 400 0
400 -2717 2718 0
-399 -2717 2718 0
-2718 -400 399 0
399 -2718 2719 0
-400 -2718 2719 0
-2719 -427 428 0
428 -2719 2720 0
-427 -2719 2720 0
-2720 -428 427 0
427 -2720 2721 0
-428 -2720 2721 0
-2721 -454 455 0
455 -2721 2722 0
-454 -2721 2722 0
-2722 -455 454 0
454 -2722 2723 0
-455 -2722 2723 0
-2723 -480 481 0
481 -2723 2724 0
-480 -2723 2724 0
-2724 -481 480 0
2725 0
-847 848 0
848 -2725 2726 0
-847 -2725 2726 0
-2726 -848 847 0
847 -2726 2727 0
-848 -2726 2727 0
-2727 -888 889 0
889 -2727 2728 0
-888 -2727 2728 0
-2728 -889 888 0
888 -2728 2729 0
-889 -2728 2729 0
-2729 -929 930 0
930 -2729 2730 0
-929 -2729 2730 0
-2730 -930 929 0
929 -2730 2731 0
-930 -2730 2731 0
-2731 -970 971 0
971 -2731 2732 0
-970 -2731 2732 0
-2732 -971 970 0
970 -2732 2733 0
-971 -2732 2733 0
-2733 -1011 1012 0
1012 -2733 2734 0
-1011 -2733 2734 0
-2734 -1012 1011 0
1011 -2734 2735 0
-1012 -2734 2735 0
-2735 -1130 1134 0
1134 -2735 2736 0
-1130 -2735 2736 0
-2736 -1134 1130 0
1130 -2736 2737 0
-1134 -2736 2737 0
-2737 -1131 1135 0
1135 -2737 2738 0
-1131 -2737 2738 0
-2738 -1135 1131 0
1131 -2738 2739 0
-1135 -2738 2739 0
-2739 -1132 1136 0
1136 -2739 2740 0
-1132 -2739 2740 0
-2740 -1136 1132 0
1132 -2740 2741 0
-1136 -2740 2741 0
-2741 -1133 1137 0
1137 -2741 2742 0
-1133 -2741 2742 0
-2742 -1137 1133 0
1133 -2742 2743 0
-1137 -2742 2743 0
-2743 -26 27 0
27 -2743 2744 0
-26 -2743 2744 0
-2744 -27 26 0
26 -2744 2745 0
-27 -2744 2745 0
-2745 -65 66 0
66 -2745 2746 0
-65 -2745 2746 0
-2746 -66 65 0
65 -2746 2747 0
-66 -2746 2747 0
-2747 -103 104 0
104 -2747 2748 0
-103 -2747 2748 0
-2748 -104 103 0
103 -2748 2749 0
-104 -2748 2749 0
-2749 -140 141 0
141 -2749 2750 0
-140 -2749 2750 0
-2750 -141 140 0
140 -2750 2751 0
-141 -2750 2751 0
-2751 -176 177 0
177 -2751 2752 0
-176 -2751 2752 0
-2752 -177 176 0
176 -2752 2753 0
-177 -2752 2753 0
-2753 -211 212 0
212 -2753 2754 0
-211 -2753 2754 0
-2754 -212 211 0
211 -2754 2755 0
-212 -2754 2755 0
-2755 -245 246 0
246 -2755 2756 0
-245 -2755 2756 0
-2756 -246 245 0
245 -2756 2757 0
-246 -2756 2757 0
-2757 -278 279 0
279 -2757 2758 0
-278 -2757 2758 0
-2758 -279 278 0
278 -2758 2759 0
-279 -2758 2759 0
-2759 -310 311 0
311 -2759 2760 0
-310 -2759 2760 0
-2760 -311 310 0
310 -2760 2761 0
-311 -2760 2761 0
-2761 -341 342 0
342 -2761 2762 0
-341 -2761 2762 0
-2762 -342 341 0
341 -2762 2763 0
-342 -2762 2763 0
-2763 -371 372 0
372 -2763 2764 0
-371 -2763 2764 0
-2764 -372 371 0
371 -2764 2765 0
-372 -2764 2765 0
-2765 -400 401 0
401 -2765 2766 0
-400 -2765 2766 0
-2766 -401 400 0
400 -2766 2767 0
-401 -2766 2767 0
-2767 -428 429 0
429 -2767 2768 0
-428 -2767 2768 0
-2768 -429 428 0
428 -2768 2769 0
-429 -2768 2769 0
-2769 -455 456 0
456 -2769 2770 0
-455 -2769 2770 0
-2770 -456 455 0
455 -2770 2771 0
-456 -2770 2771 0
-2771 -481 482 0
482 -2771 2772 0
-481 -2771 2772 0
-2772 -482 481 0
2773 0
-848 849 0
849 -2773 2774 0
-848 -2773 2774 0
-2774 -849 848 0
848 -2774 2775 0
-849 -2774 2775 0
-2775 -889 890 0
890 -2775 2776 0
-889 -2775 2776 0
-2776 -890 889 0
889 -2776 2777 0
-890 -2776 2777 0
-2777 -930 931 0
931 -2777 2778 0
-930 -2777 2778 0
-2778 -931 930 0
930 -2778 2779 0
-931 -2778 2779 0
-2779 -971 972 0
972 -2779 2780 0
-971 -2779 2780 0
-2780 -972 971 0
971 -2780 2781 0
-972 -2780 2781 0
-2781 -1012 1013 0
1013 -2781 2782 0
-1012 -2781 2782 0
-2782 -1013 1012 0
1012 -2782 2783 0
-1013 -2782 2783 0
-2783 -1134 1138 0
1138 -2783 2784 0
-1134 -2783 2784 0
-2784 -1138 1134 0
1134 -2784 2785 0
-1138 -2784 2785 0
-2785 -1135 1139 0
1139 -2785 2786 0
-1135 -2785 2786 0
-2786 -1139 1135 0
1135 -2786 2787 0
-1139 -2786 2787 0
-2787 -1136 1140 0
1140 -2787 2788 0
-1136 -2787 2788 0
-2788 -1140 1136 0
1136 -2788 2789 0
-1140 -2788 2789 0
-2789 -1137 1141 0
1141 -2789 2790 0
-1137 -2789 2790 0
-2790 -1141 1137 0
1137 -2790 2791 0
-1141 -2790 2791 0
-2791 -27 28 0
28 -2791 2792 0
-27 -2791 2792 0
-2792 -28 27 0
27 -2792 2793 0
-28 -2792 2793 0
-2793 -66 67 0
67 -2793 2794 0
-66 -2793 2794 0
-2794 -67 66 0
66 -2794 2795 0
-67 -2794 2795 0
-2795 -104 105 0
105 -2795 2796 0
-104 -2795 2796 0
-2796 -105 104 0
104 -2796 2797 0
-105 -2796 2797 0
-2797 -141 142 0
142 -2797 2798 0
-141 -2797 2798 0
-2798 -142 141 0
141 -2798 2799 0
-142 -2798 2799 0
-2799 -177 178 0
178 -2799 2800 0
-177 -2799 2800 0
-2800 -178 177 0
177 -2800 2801 0
-178 -2800 2801 0
-2801 -212 213 0
213 -2801 2802 0
-212 -2801 2802 0
-2802 -213 212 0
212 -2802 2803 0
-213 -2802 2803 0
-2803 -246 247 0
247 -2803 2804 0
-246 -2803 2804 0
-2804 -247 246 0
246 -2804 2805 0
-247 -2804 2805 0
-2805 -279 280 0
280 -2805 2806 0
-279 -2805 2806 0
-2806 -280 279 0
279 -2806 2807 0
-280 -2806 2807 0
-2807 -311 312 0
312 -2807 2808 0
-311 -2807 2808 0
-2808 -312 311 0
311 -2808 2809 0
-312 -2808 2809 0
-2809 -342 343 0
343 -2809 2810 0
-342 -2809 2810 0
-2810 -343 342 0
342 -2810 2811 0
-343 -2810 2811 0
-2811 -372 373 0
373 -2811 2812 0
-372 -2811 2812 0
-2812 -373 372 0
372 -2812 2813 0
-373 -2812 2813 0
-2813 -401 402 0
402 -2813 2814 0
-401 -2813 2814 0
-2814 -402 401 0
401 -2814 2815 0
-402 -2814 2815 0
-2815 -429 430 0
430 -2815 2816 0
-429 -2815 2816 0
-2816 -430 429 0
429 -2816 2817 0
-430 -2816 2817 0
-2817 -456 457 0
457 -2817 2818 0
-456 -2817 2818 0
-2818 -457 456 0
456 -2818 2819 0
-457 -2818 2819 0
-2819 -482 483 0
483 -2819 2820 0
-482 -2819 2820 0
-2820 -483 482 0
2821 0
-849 850 0
850 -2821 2822 0
-849 -2821 2822 0
-2822 -850 849 0
849 -2822 2823 0
-850 -2822 2823 0
-2823 -890 891 0
891 -2823 2824 0
-890 -2823 2824 0
-2824 -891 890 0
890 -2824 2825 0
-891 -2824 2825 0
-2825 -931 932 0
932 -2825 2826 0
-931 -2825 2826 0
-2826 -932 931 0
931 -2826 2827 0
-932 -2826 2827 0
-2827 -972 973 0
973 -2827 2828 0
-972 -2827 2828 0
-2828 -973 972 0
972 -2828 2829 0
-973 -2828 2829 0
-2829 -1013 1014 0
1014 -2829 2830 0
-1013 -2829 2830 0
-2830 -1014 1013 0
1013 -2830 2831 0
-1014 -2830 2831 0
-2831 -1138 1142 0
1142 -2831 2832 0
-1138 -2831 2832 0
-2832 -1142 1138 0
1138 -2832 2833 0
-1142 -2832 2833 0
-2833 -1139 1143 0
1143 -2833 2834 0
-1139 -2833 2834 0
-2834 -1143 1139 0
1139 -2834 2835 0
-1143 -2834 2835 0
-2835 -1140 1144 0
1144 -2835 2836 0
-1140 -2835 2836 0
-2836 -1144 1140 0
1140 -2836 2837 0
-1144 -2836 2837 0
-2837 -1141 1145 0
1145 -2837 2838 0
-1141 -2837 2838 0
-2838 -1145 1141 0
1141 -2838 2839 0
-1145 -2838 2839 0
-2839 -28 29 0
29 -2839 2840 0
-28 -2839 2840 0
-2840 -29 28 0
28 -2840 2841 0
-29 -2840 2841 0
-2841 -67 68 0
68 -2841 2842 0
-67 -2841 2842 0
-2842 -68 67 0
67 -2842 2843 0
-68 -2842 2843 0
-2843 -105 106 0
106 -2843 2844 0
-105 -2843 2844 0
-2844 -106 105 0
105 -2844 2845 0
-106 -2844 2845 0
-2845 -142 143 0
143 -2845 2846 0
-142 -2845 2846 0
-2846 -143 142 0
142 -2846 2847 0
-143 -2846 2847 0
-2847 -178 179 0
179 -2847 2848 0
-178 -2847 2848 0
-2848 -179 178 0
178 -2848 2849 0
-179 -2848 2849 0
-2849 -213 214 0
214 -2849 2850 0
-213 -2849 2850 0
-2850 -214 213 0
213 -2850 2851 0
-214 -2850 2851 0
-2851 -247 248 0
248 -2851 2852 0
-247 -2851 2852 0
-2852 -248 247 0
247 -2852 2853 0
-248 -2852 2853 0
-2853 -280 281 0
281 -2853 2854 0
-280 -2853 2854 0
-2854 -281 280 0
280 -2854 2855 0
-281 -2854 2855 0
-2855 -312 313 0
313 -2855 2856 0
-312 -2855 2856 0
-2856 -313 312 0
312 -2856 2857 0
-313 -2856 2857 0
-2857 -343 344 0
344 -2857 2858 0
-343 -2857 2858 0
-2858 -344 343 0
343 -2858 2859 0
-344 -2858 2859 0
-2859 -373 374 0
374 -2859 2860 0
-373 -2859 2860 0
-2860 -374 373 0
373 -2860 2861 0
-374 -2860 2861 0
-2861 -402 403 0
403 -2861 2862 0
-402 -2861 2862 0
-2862 -403 402 0
402 -2862 2863 0
-403 -2862 2863 0
-2863 -430 431 0
431 -2863 2864 0
-430 -2863 2864 0
-2864 -431 430 0
430 -2864 2865 0
-431 -2864 2865 0
-2865 -457 458 0
458 -2865 2866 0
-457 -2865 2866 0
-2866 -458 457 0
457 -2866 2867 0
-458 -2866 2867 0
-2867 -483 484 0
484 -2867 2868 0
-483 -2867 2868 0
-2868 -484 483 0
2869 0
-850 851 0
851 -2869 2870 0
-850 -2869 2870 0
-2870 -851 850 0
850 -2870 2871 0
-851 -2870 2871 0
-2871 -891 892 0
892 -2871 2872 0
-891 -2871 2872 0
-2872 -892 891 0
891 -2872 2873 0
-892 -2872 2873 0
-2873 -932 933 0
933 -2873 2874 0
-932 -2873 2874 0
-2874 -933 932 0
932 -2874 2875 0
-933 -2874 2875 0
-2875 -973 974 0
974 -2875 2876 0
-973 -2875 2876 0
-2876 -974 973 0
973 -2876 2877 0
-974 -2876 2877 0
-2877 -1014 1015 0
1015 -2877 2878 0
-1014 -2877 2878 0
-2878 -1015 1014 0
1014 -2878 2879 0
-1015 -2878 2879 0
-2879 -1142 1146 0
1146 -2879 2880 0
-1142 -2879 2880 0
-2880 -1146 1142 0
1142 -2880 2881 0
-1146 -2880 2881 0
-2881 -1143 1147 0
1147 -2881 2882 0
-1143 -2881 2882 0
-2882 -1147 1143 0
1143 -2882 2883 0
-1147 -2882 2883 0
-2883 -1144 1148 0
1148 -2883 2884 0
-1144 -2883 2884 0
-2884 -1148 1144 0
1144 -2884 2885 0
-1148 -2884 2885 0
-2885 -1145 1149 0
1149 -2885 2886 0
-1145 -2885 2886 0
-2886 -1149 1145 0
1145 -2886 2887 0
-1149 -2886 2887 0
-2887 -29 30 0
30 -2887 2888 0
-29 -2887 2888 0
-2888 -30 29 0
29 -2888 2889 0
-30 -2888 2889 0
-2889 -68 69 0
69 -2889 2890 0
-68 -2889 2890 0
-2890 -69 68 0
68 -2890 2891 0
-69 -2890 2891 0
-2891 -106 107 0
107 -2891 2892 0
-106 -2891 2892 0
-2892 -107 106 0
106 -2892 2893 0
-107 -2892 2893 0
-2893 -143 144 0
144 -2893 2894 0
-143 -2893 2894 0
-2894 -144 143 0
143 -2894 2895 0
-144 -2894 2895 0
-2895 -179 180 0
180 -2895 2896 0
-179 -2895 2896 0
-2896 -180 179 0
179 -2896 2897 0
-180 -2896 2897 0
-2897 -214 215 0
215 -2897 2898 0
-214 -2897 2898 0
-2898 -215 214 0
214 -2898 2899 0
-215 -2898 2899 0
-2899 -248 249 0
249 -2899 2900 0
-248 -2899 2900 0
-2900 -249 248 0
248 -2900 2901 0
-249 -2900 2901 0
-2901 -281 282 0
282 -2901 2902 0
-281 -2901 2902 0
-2902 -282 281 0
281 -2902 2903 0
-282 -2902 2903 0
-2903 -313 314 0
314 -2903 2904 0
-313 -2903 2904 0
-2904 -314 313 0
313 -2904 2905 0
-314 -2904 2905 0
-2905 -344 345 0
345 -2905 2906 0
-344 -2905 2906 0
-2906 -345 344 0
344 -2906 2907 0
-345 -2906 2907 0
-2907 -374 375 0
375 -2907 2908 0
-374 -2907 2908 0
-2908 -375 374 0
374 -2908 2909 0
-375 -2908 2909 0
-2909 -403 404 0
404 -2909 2910 0
-403 -2909 2910 0
-2910 -404 403 0
403 -2910 2911 0
-404 -2910 2911 0
-2911 -431 432 0
432 -2911 2912 0
-431 -2911 2912 0
-2912 -432 431 0
431 -2912 2913 0
-432 -2912 2913 0
-2913 -458 459 0
459 -2913 2914 0
-458 -2913 2914 0
-2914 -459 458 0
458 -2914 2915 0
-459 -2914 2915 0
-2915 -484 485 0
485 -2915 2916 0
-484 -2915 2916 0
-2916 -485 484 0
2917 0
-851 852 0
852 -2917 2918 0
-851 -2917 2918 0
-2918 -852 851 0
851 -2918 2919 0
-852 -2918 2919 0
-2919 -892 893 0
893 -2919 2920 0
-892 -2919 2920 0
-2920 -893 892 0
892 -2920 2921 0
-893 -2920 2921 0
-2921 -933 934 0
934 -2921 2922 0
-933 -2921 2922 0
-2922 -934 933 0
933 -2922 2923 0
-934 -2922 2923 0
-2923 -974 975 0
975 -2923 2924 0
-974 -2923 2924 0
-2924 -975 974 0
974 -2924 2925 0
-975 -2924 2925 0
-2925 -1015 1016 0
1016 -2925 2926 0
-1015 -2925 2926 0
-2926 -1016 1015 0
1015 -2926 2927 0
-1016 -2926 2927 0
-2927 -1146 1150 0
1150 -2927 2928 0
-1146 -2927 2928 0
-2928 -1150 1146 0
1146 -2928 2929 0
-1150 -2928 2929 0
-2929 -1147 1151 0
1151 -2929 2930 0
-1147 -2929 2930 0
-2930 -1151 1147 0
1147 -2930 2931 0
-1151 -2930 2931 0
-2931 -1148 1152 0
1152 -2931 2932 0
-1148 -2931 2932 0
-2932 -1152 1148 0
1148 -2932 2933 0
-1152 -2932 2933 0
-2933 -1149 1153 0
1153 -2933 2934 0
-1149 -2933 2934 0
-2934 -1153 1149 0
1149 -2934 2935 0
-1153 -2934 2935 0
-2935 -30 31 0
31 -2935 2936 0
-30 -2935 2936 0
-2936 -31 30 0
30 -2936 2937 0
-31 -2936 2937 0
-2937 -69 70 0
70 -2937 2938 0
-69 -2937 2938 0
-2938 -70 69 0
69 -2938 2939 0
-70 -2938 2939 0
-2939 -107 108 0
108 -2939 2940 0
-107 -2939 2940 0
-2940 -108 107 0
107 -2940 2941 0
-108 -2940 2941 0
-2941 -144 145 0
145 -2941 2942 0
-144 -2941 2942 0
-2942 -145 144 0
144 -2942 2943 0
-145 -2942 2943 0
-2943 -180 181 0
181 -2943 2944 0
-180 -2943 2944 0
-2944 -181 180 0
180 -2944 2945 0
-181 -2944 2945 0
-2945 -215 216 0
216 -2945 2946 0
-215 -2945 2946 0
-2946 -216 215 0
215 -2946 2947 0
-216 -2946 2947 0
-2947 -249 250 0
250 -2947 2948 0
-249 -2947 2948 0
-2948 -250 249 0
249 -2948 2949 0
-250 -2948 2949 0
-2949 -282 283 0
283 -2949 2950 0
-282 -2949 2950 0
-2950 -283 282 0
282 -2950 2951 0
-283 -2950 2951 0
-2951 -314 315 0
315 -2951 2952 0
-314 -2951 2952 0
-2952 -315 314 0
314 -2952 2953 0
-315 -2952 2953 0
-2953 -345 346 0
346 -2953 2954 0
-345 -2953 2954 0
-2954 -346 345 0
345 -2954 2955 0
-346 -2954 2955 0
-2955 -375 376 0
376 -2955 2956 0
-375 -2955 2956 0
-2956 -376 375 0
375 -2956 2957 0
-376 -2956 2957 0
-2957 -404 405 0
405 -2957 2958 0
-404 -2957 2958 0
-2958 -405 404 0
404 -2958 2959 0
-405 -2958 2959 0
-2959 -432 433 0
433 -2959 2960 0
-432 -2959 2960 0
-2960 -433 432 0
432 -2960 2961 0
-433 -2960 2961 0
-2961 -459 460 0
460 -2961 2962 0
-459 -2961 2962 0
-2962 -460 459 0
459 -2962 2963 0
-460 -2962 2963 0
-2963 -485 486 0
486 -2963 2964 0
-485 -2963 2964 0
-2964 -486 485 0
2965 0
-852 853 0
853 -2965 2966 0
-852 -2965 2966 0
-2966 -853 852 0
852 -2966 2967 0
-853 -2966 2967 0
-2967 -893 894 0
894 -2967 2968 0
-893 -2967 2968 0
-2968 -894 893 0
893 -2968 2969 0
-894 -2968 2969 0
-2969 -934 935 0
935 -2969 2970 0
-934 -2969 2970 0
-2970 -935 934 0
934 -2970 2971 0
-935 -2970 2971 0
-2971 -975 976 0
976 -2971 2972 0
-975 -2971 2972 0
-2972 -976 975 0
975 -2972 2973 0
-976 -2972 2973 0
-2973 -1016 1017 0
1017 -2973 2974 0
-1016 -2973 2974 0
-2974 -1017 1016 0
1016 -2974 2975 0
-1017 -2974 2975 0
-2975 -1150 1154 0
1154 -2975 2976 0
-1150 -2975 2976 0
-2976 -1154 1150 0
1150 -2976 2977 0
-1154 -2976 2977 0
-2977 -1151 1155 0
1155 -2977 2978 0
-1151 -2977 2978 0
-2978 -1155 1151 0
1151 -2978 2979 0
-1155 -2978 2979 0
-2979 -1152 1156 0
1156 -2979 2980 0
-1152 -2979 2980 0
-2980 -1156 1152 0
1152 -2980 2981 0
-1156 -2980 2981 0
-2981 -1153 1157 0
1157 -2981 2982 0
-1153 -2981 2982 0
-2982 -1157 1153 0
1153 -2982 2983 0
-1157 -2982 2983 0
-2983 -31 32 0
32 -2983 2984 0
-31 -2983 2984 0
-2984 -32 31 0
31 -2984 2985 0
-32 -2984 2985 0
-2985 -70 71 0
71 -2985 2986 0
-70 -2985 2986 0
-2986 -71 70 0
70 -2986 2987 0
-71 -2986 2987 0
-2987 -108 109 0
109 -2987 2988 0
-108 -2987 2988 0
-2988 -109 108 0
108 -2988 2989 0
-109 -2988 2989 0
-2989 -145 146 0
146 -2989 2990 0
-145 -2989 2990 0
-2990 -146 145 0
145 -2990 2991 0
-146 -2990 2991 0
-2991 -181 182 0
182 -2991 2992 0
-181 -2991 2992 0
-2992 -182 181 0
181 -2992 2993 0
-182 -2992 2993 0
-2993 -216 217 0
217 -2993 2994 0
-216 -2993 2994 0
-2994 -217 216 0
216 -2994 2995 0
-217 -2994 2995 0
-2995 -250 251 0
251 -2995 2996 0
-250 -2995 2996 0
-2996 -251 250 0
250 -2996 2997 0
-251 -2996 2997 0
-2997 -283 284 0
284 -2997 2998 0
-283 -2997 2998 0
-2998 -284 283 0
283 -2998 2999 0
-284 -2998 2999 0
-2999 -315 316 0
316 -2999 3000 0
-315 -2999 3000 0
-3000 -316 315 0
315 -3000 3001 0
-316 -3000 3001 0
-3001 -346 347 0
347 -3001 3002 0
-346 -3001 3002 0
-3002 -347 346 0
346 -3002 3003 0
-347 -3002 3003 0
-3003 -376 377 0
377 -3003 3004 0
-376 -3003 3004 0
-3004 -377 376 0
376 -3004 3005 0
-377 -3004 3005 0
-3005 -405 406 0
406 -3005 3006 0
-405 -3005 3006 0
-3006 -406 405 0
405 -3006 3007 0
-406 -3006 3007 0
-3007 -433 434 0
434 -3007 3008 0
-433 -3007 3008 0
-3008 -434 433 0
433 -3008 3009 0
-434 -3008 3009 0
-3009 -460 461 0
461 -3009 3010 0
-460 -3009 3010 0
-3010 -461 460 0
460 -3010 3011 0
-461 -3010 3011 0
-3011 -486 487 0
487 -3011 3012 0
-486 -3011 3012 0
-3012 -487 486 0
3013 0
-853 854 0
854 -3013 3014 0
-853 -3013 3014 0
-3014 -854 853 0
853 -3014 3015 0
-854 -3014 3015 0
-3015 -894 895 0
895 -3015 3016 0
-894 -3015 3016 0
-3016 -895 894 0
894 -3016 3017 0
-895 -3016 3017 0
-3017 -935 936 0
936 -3017 3018 0
-935 -3017 3018 0
-3018 -936 935 0
935 -3018 3019 0
-936 -3018 3019 0
-3019 -976 977 0
977 -3019 3020 0
-976 -3019 3020 0
-3020 -977 976 0
976 -3020 3021 0
-977 -3020 3021 0
-3021 -1017 1018 0
1018 -3021 3022 0
-1017 -3021 3022 0
-3022 -1018 1017 0
1017 -3022 3023 0
-1018 -3022 3023 0
-3023 -1154 1158 0
1158 -3023 3024 0
-1154 -3023 3024 0
-3024 -1158 1154 0
1154 -3024 3025 0
-1158 -3024 3025 0
-3025 -1155 1159 0
1159 -3025 3026 0
-1155 -3025 3026 0
-3026 -1159 1155 0
1155 -3026 3027 0
-1159 -3026 3027 0
-3027 -1156 1160 0
1160 -3027 3028 0
-1156 -3027 3028 0
-3028 -1160 1156 0
1156 -3028 3029 0
-1160 -3028 3029 0
-3029 -1157 1161 0
1161 -3029 3030 0
-1157 -3029 3030 0
-3030 -1161 1157 0
1157 -3030 3031 0
-1161 -3030 3031 0
-3031 -32 33 0
33 -3031 3032 0
-32 -3031 3032 0
-3032 -33 32 0
32 -3032 3033 0
-33 -3032 3033 0
-3033 -71 72 0
72 -3033 3034 0
-71 -3033 3034 0
-3034 -72 71 0
71 -3034 3035 0
-72 -3034 3035 0
-3035 -109 110 0
110 -3035 3036 0
-109 -3035 3036 0
-3036 -110 109 0
109 -3036 3037 0
-110 -3036 3037 0
-3037 -146 147 0
147 -3037 3038 0
-146 -3037 3038 0
-3038 -147 146 0
146 -3038 3039 0
-147 -3038 3039 0
-3039 -182 183 0
183 -3039 3040 0
-182 -3039 3040 0
-3040 -183 182 0
182 -3040 3041 0
-183 -3040 3041 0
-3041 -217 218 0
218 -3041 3042 0
-217 -3041 3042 0
-3042 -218 217 0
217 -3042 3043 0
-218 -3042 3043 0
-3043 -251 252 0
252 -3043 3044 0
-251 -3043 3044 0
-3044 -252 251 0
251 -3044 3045 0
-252 -3044 3045 0
-3045 -284 285 0
285 -3045 3046 0
-284 -3045 3046 0
-3046 -285 284 0
284 -3046 3047 0
-285 -3046 3047 0
-3047 -316 317 0
317 -3047 3048 0
-316 -3047 3048 0
-3048 -317 316 0
316 -3048 3049 0
-317 -3048 3049 0
-3049 -347 348 0
348 -3049 3050 0
-347 -3049 3050 0
-3050 -348 347 0
347 -3050 3051 0
-348 -3050 3051 0
-3051 -377 378 0
378 -3051 3052 0
-377 -3051 3052 0
-3052 -378 377 0
377 -3052 3053 0
-378 -3052 3053 0
-3053 -406 407 0
407 -3053 3054 0
-406 -3053 3054 0
-3054 -407 406 0
406 -3054 3055 0
-407 -3054 3055 0
-3055 -434 435 0
435 -3055 3056 0
-434 -3055 3056 0
-3056 -435 434 0
434 -3056 3057 0
-435 -3056 3057 0
-3057 -461 462 0
462 -3057 3058 0
-461 -3057 3058 0
-3058 -462 461 0
461 -3058 3059 0
-462 -3058 3059 0
-3059 -487 488 0
488 -3059 3060 0
-487 -3059 3060 0
-3060 -488 487 0
3061 0
-854 855 0
855 -3061 3062 0
-854 -3061 3062 0
-3062 -855 854 0
854 -3062 3063 0
-855 -3062 3063 0
-3063 -895 896 0
896 -3063 3064 0
-895 -3063 3064 0
-3064 -896 895 0
895 -3064 3065 0
-896 -3064 3065 0
-3065 -936 937 0
937 -3065 3066 0
-936 -3065 3066 0
-3066 -937 936 0
936 -3066 3067 0
-937 -3066 3067 0
-3067 -977 978 0
978 -3067 3068 0
-977 -3067 3068 0
-3068 -978 977 0
977 -3068 3069 0
-978 -3068 3069 0
-3069 -1018 1019 0
1019 -3069 3070 0
-1018 -3069 3070 0
-3070 -1019 1018 0
1018 -3070 3071 0
-1019 -3070 3071 0
-3071 -1158 1162 0
1162 -3071 3072 0
-1158 -3071 3072 0
-3072 -1162 1158 0
1158 -3072 3073 0
-1162 -3072 3073 0
-3073 -1159 1163 0
1163 -3073 3074 0
-1159 -3073 3074 0
-3074 -1163 1159 0
1159 -3074 3075 0
-1163 -3074 3075 0
-3075 -1160 1164 0
1164 -3075 3076 0
-1160 -3075 3076 0
-3076 -1164 1160 0
1160 -3076 3077 0
-1164 -3076 3077 0
-3077 -1161 1165 0
1165 -3077 3078 0
-1161 -3077 3078 0
-3078 -1165 1161 0
1161 -3078 3079 0
-1165 -3078 3079 0
-3079 -33 34 0
34 -3079 3080 0
-33 -3079 3080 0
-3080 -34 33 0
33 -3080 3081 0
-34 -3080 3081 0
-3081 -72 73 0
73 -3081 3082 0
-72 -3081 3082 0
-3082 -73 72 0
72 -3082 3083 0
-73 -3082 3083 0
-3083 -110 111 0
111 -3083 3084 0
-110 -3083 3084 0
-3084 -111 110 0
110 -3084 3085 0
-111 -3084 3085 0
-3085 -147 148 0
148 -3085 3086 0
-147 -3085 3086 0
-3086 -148 147 0
147 -3086 3087 0
-148 -3086 3087 0
-3087 -183 184 0
184 -3087 3088 0
-183 -3087 3088 0
-3088 -184 183 0
183 -3088 3089 0
-184 -3088 3089 0
-3089 -218 219 0
219 -3089 3090 0
-218 -3089 3090 0
-3090 -219 218 0
218 -3090 3091 0
-219 -3090 3091 0
-3091 -252 253 0
253 -3091 3092 0
-252 -3091 3092 0
-3092 -253 252 0
252 -3092 3093 0
-253 -3092 3093 0
-3093 -285 286 0
286 -3093 3094 0
-285 -3093 3094 0
-3094 -286 285 0
285 -3094 3095 0
-286 -3094 3095 0
-3095 -317 318 0
318 -3095 3096 0
-317 -3095 3096 0
-3096 -318 317 0
317 -3096 3097 0
-318 -3096 3097 0
-3097 -348 349 0
349 -3097 3098 0
-348 -3097 3098 0
-3098 -349 348 0
348 -3098 3099 0
-349 -3098 3099 0
-3099 -378 379 0
379 -3099 3100 0
-378 -3099 3100 0
-3100 -379 378 0
378 -3100 3101 0
-379 -3100 3101 0
-3101 -407 408 0
408 -3101 3102 0
-407 -3101 3102 0
-3102 -408 407 0
407 -3102 3103 0
-408 -3102 3103 0
-3103 -435 436 0
436 -3103 3104 0
-435 -3103 3104 0
-3104 -436 435 0
435 -3104 3105 0
-436 -3104 3105 0
-3105 -462 463 0
463 -3105 3106 0
-462 -3105 3106 0
-3106 -463 462 0
462 -3106 3107 0
-463 -3106 3107 0
-3107 -488 489 0
489 -3107 3108 0
-488 -3107 3108 0
-3108 -489 488 0
3109 0
-855 856 0
856 -3109 3110 0
-855 -3109 3110 0
-3110 -856 855 0
855 -3110 3111 0
-856 -3110 3111 0
-3111 -896 897 0
897 -3111 3112 0
-896 -3111 3112 0
-3112 -897 896 0
896 -3112 3113 0
-897 -3112 3113 0
-3113 -937 938 0
938 -3113 3114 0
-937 -3113 3114 0
-3114 -938 937 0
937 -3114 3115 0
-938 -3114 3115 0
-3115 -978 979 0
979 -3115 3116 0
-978 -3115 3116 0
-3116 -979 978 0
978 -3116 3117 0
-979 -3116 3117 0
-3117 -1019 1020 0
1020 -3117 3118 0
-1019 -3117 3118 0
-3118 -1020 1019 0
1019 -3118 3119 0
-1020 -3118 3119 0
-3119 -1162 1166 0
1166 -3119 3120 0
-1162 -3119 3120 0
-3120 -1166 1162 0
1162 -3120 3121 0
-1166 -3120 3121 0
-3121 -1163 1167 0
1167 -3121 3122 0
-1163 -3121 3122 0
-3122 -1167 1163 0
1163 -3122 3123 0
-1167 -3122 3123 0
-3123 -1164 1168 0
1168 -3123 3124 0
-1164 -3123 3124 0
-3124 -1168 1164 0
1164 -3124 3125 0
-1168 -3124 3125 0
-3125 -1165 1169 0
1169 -3125 3126 0
-1165 -3125 3126 0
-3126 -1169 1165 0
1165 -3126 3127 0
-1169 -3126 3127 0
-3127 -34 35 0
35 -3127 3128 0
-34 -3127 3128 0
-3128 -35 34 0
34 -3128 3129 0
-35 -3128 3129 0
-3129 -73 74 0
74 -3129 3130 0
-73 -3129 3130 0
-3130 -74 73 0
73 -3130 3131 0
-74 -3130 3131 0
-3131 -111 112 0
112 -3131 3132 0
-111 -3131 3132 0
-3132 -112 111 0
111 -3132 3133 0
-112 -3132 3133 0
-3133 -148 149 0
149 -3133 3134 0
-148 -3133 3134 0
-3134 -149 148 0
148 -3134 3135 0
-149 -3134 3135 0
-3135 -184 185 0
185 -3135 3136 0
-184 -3135 3136 0
-3136 -185 184 0
184 -3136 3137 0
-185 -3136 3137 0
-3137 -219 220 0
220 -3137 3138 0
-219 -3137 3138 0
-3138 -220 219 0
219 -3138 3139 0
-220 -3138 3139 0
-3139 -253 254 0
254 -3139 3140 0
-253 -3139 3140 0
-3140 -254 253 0
253 -3140 3141 0
-254 -3140 3141 0
-3141 -286 287 0
287 -3141 3142 0
-286 -3141 3142 0
-3142 -287 286 0
286 -3142 3143 0
-287 -3142 3143 0
-3143 -318 319 0
319 -3143 3144 0
-318 -3143 3144 0
-3144 -319 318 0
318 -3144 3145 0
-319 -3144 3145 0
-3145 -349 350 0
350 -3145 3146 0
-349 -3145 3146 0
-3146 -350 349 0
349 -3146 3147 0
-350 -3146 3147 0
-3147 -379 380 0
380 -3147 3148 0
-379 -3147 3148 0
-3148 -380 379 0
379 -3148 3149 0
-380 -3148 3149 0
-3149 -408 409 0
409 -3149 3150 0
-408 -3149 3150 0
-3150 -409 408 0
408 -3150 3151 0
-409 -3150 3151 0
-3151 -436 437 0
437 -3151 3152 0
-436 -3151 3152 0
-3152 -437 436 0
436 -3152 3153 0
-437 -3152 3153 0
-3153 -463 464 0
464 -3153 3154 0
-463 -3153 3154 0
-3154 -464 463 0
463 -3154 3155 0
-464 -3154 3155 0
-3155 -489 490 0
490 -3155 3156 0
-489 -3155 3156 0
-3156 -490 489 0
3157 0
-856 857 0
857 -3157 3158 0
-856 -3157 3158 0
-3158 -857 856 0
856 -3158 3159 0
-857 -3158 3159 0
-3159 -897 898 0
898 -3159 3160 0
-897 -3159 3160 0
-3160 -898 897 0
897 -3160 3161 0
-898 -3160 3161 0
-3161 -938 939 0
939 -3161 3162 0
-938 -3161 3162 0
-3162 -939 938 0
938 -3162 3163 0
-939 -3162 3163 0
-3163 -979 980 0
980 -3163 3164 0
-979 -3163 3164 0
-3164 -980 979 0
979 -3164 3165 0
-980 -3164 3165 0
-3165 -1020 1021 0
1021 -3165 3166 0
-1020 -3165 3166 0
-3166 -1021 1020 0
1020 -3166 3167 0
-1021 -3166 3167 0
-3167 -1166 1170 0
1170 -3167 3168 0
-1166 -3167 3168 0
-3168 -1170 1166 0
1166 -3168 3169 0
-1170 -3168 3169 0
-3169 -1167 1171 0
1171 -3169 3170 0
-1167 -3169 3170 0
-3170 -1171 1167 0
1167 -3170 3171 0
-1171 -3170 3171 0
-3171 -1168 1172 0
1172 -3171 3172 0
-1168 -3171 3172 0
-3172 -1172 1168 0
1168 -3172 3173 0
-1172 -3172 3173 0
-3173 -1169 1173 0
1173 -3173 3174 0
-1169 -3173 3174 0
-3174 -1173 1169 0
1169 -3174 3175 0
-1173 -3174 3175 0
-3175 -35 36 0
36 -3175 3176 0
-35 -3175 3176 0
-3176 -36 35 0
35 -3176 3177 0
-36 -3176 3177 0
-3177 -74 75 0
75 -3177 3178 0
-74 -3177 3178 0
-3178 -75 74 0
74 -3178 3179 0
-75 -3178 3179 0
-3179 -112 113 0
113 -3179 3180 0
-112 -3179 3180 0
-3180 -113 112 0
112 -3180 3181 0
-113 -3180 3181 0
-3181 -149 150 0
150 -3181 3182 0
-149 -3181 3182 0
-3182 -150 149 0
149 -3182 3183 0
-150 -3182 3183 0
-3183 -185 186 0
186 -3183 3184 0
-185 -3183 3184 0
-3184 -186 185 0
185 -3184 3185 0
-186 -3184 3185 0
-3185 -220 221 0
221 -3185 3186 0
-220 -3185 3186 0
-3186 -221 220 0
220 -3186 3187 0
-221 -3186 3187 0
-3187 -254 255 0
255 -3187 3188 0
-254 -3187 3188 0
-3188 -255 254 0
254 -3188 3189 0
-255 -3188 3189 0
-3189 -287 288 0
288 -3189 3190 0
-287 -3189 3190 0
-3190 -288 287 0
287 -3190 3191 0
-288 -3190 3191 0
-3191 -319 320 0
320 -3191 3192 0
-319 -3191 3192 0
-3192 -320 319 0
319 -3192 3193 0
-320 -3192 3193 0
-3193 -350 351 0
351 -3193 3194 0
-350 -3193 3194 0
-3194 -351 350 0
350 -3194 3195 0
-351 -3194 3195 0
-3195 -380 381 0
381 -3195 3196 0
-380 -3195 3196 0
-3196 -381 380 0
380 -3196 3197 0
-381 -3196 3197 0
-3197 -409 410 0
410 -3197 3198 0
-409 -3197 3198 0
-3198 -410 409 0
409 -3198 3199 0
-410 -3198 3199 0
-3199 -437 438 0
438 -3199 3200 0
-437 -3199 3200 0
-3200 -438 437 0
437 -3200 3201 0
-438 -3200 3201 0
-3201 -464 465 0
465 -3201 3202 0
-464 -3201 3202 0
-3202 -465 464 0
464 -3202 3203 0
-465 -3202 3203 0
-3203 -490 491 0
491 -3203 3204 0
-490 -3203 3204 0
-3204 -491 490 0
3205 0
-857 858 0
858 -3205 3206 0
-857 -3205 3206 0
-3206 -858 857 0
857 -3206 3207 0
-858 -3206 3207 0
-3207 -898 899 0
899 -3207 3208 0
-898 -3207 3208 0
-3208 -899 898 0
898 -3208 3209 0
-899 -3208 3209 0
-3209 -939 940 0
940 -3209 3210 0
-939 -3209 3210 0
-3210 -940 939 0
939 -3210 3211 0
-940 -3210 3211 0
-3211 -980 981 0
981 -3211 3212 0
-980 -3211 3212 0
-3212 -981 980 0
980 -3212 3213 0
-981 -3212 3213 0
-3213 -1021 1022 0
1022 -3213 3214 0
-1021 -3213 3214 0
-3214 -1022 1021 0
1021 -3214 3215 0
-1022 -3214 3215 0
-3215 -1170 1174 0
1174 -3215 3216 0
-1170 -3215 3216 0
-3216 -1174 1170 0
1170 -3216 3217 0
-1174 -3216 3217 0
-3217 -1171 1175 0
1175 -3217 3218 0
-1171 -3217 3218 0
-3218 -1175 1171 0
1171 -3218 3219 0
-1175 -3218 3219 0
-3219 -1172 1176 0
1176 -3219 3220 0
-1172 -3219 3220 0
-3220 -1176 1172 0
1172 -3220 3221 0
-1176 -3220 3221 0
-3221 -1173 1177 0
1177 -3221 3222 0
-1173 -3221 3222 0
-3222 -1177 1173 0
1173 -3222 3223 0
-1177 -3222 3223 0
-3223 -36 37 0
37 -3223 3224 0
-36 -3223 3224 0
-3224 -37 36 0
36 -3224 3225 0
-37 -3224 3225 0
-3225 -75 76 0
76 -3225 3226 0
-75 -3225 3226 0
-3226 -76 75 0
75 -3226 3227 0
-76 -3226 3227 0
-3227 -113 114 0
114 -3227 3228 0
-113 -3227 3228 0
-3228 -114 113 0
113 -3228 3229 0
-114 -3228 3229 0
-3229 -150 151 0
151 -3229 3230 0
-150 -3229 3230 0
-3230 -151 150 0
150 -3230 3231 0
-151 -3230 3231 0
-3231 -186 187 0
187 -3231 3232 0
-186 -3231 3232 0
-3232 -187 186 0
186 -3232 3233 0
-187 -3232 3233 0
-3233 -221 222 0
222 -3233 3234 0
-221 -3233 3234 0
-3234 -222 221 0
221 -3234 3235 0
-222 -3234 3235 0
-3235 -255 256 0
256 -3235 3236 0
-255 -3235 3236 0
-3236 -256 255 0
255 -3236 3237 0
-256 -3236 3237 0
-3237 -288 289 0
289 -3237 3238 0
-288 -3237 3238 0
-3238 -289 288 0
288 -3238 3239 0
-289 -3238 3239 0
-3239 -320 321 0
321 -3239 3240 0
-320 -3239 3240 0
-3240 -321 320 0
320 -3240 3241 0
-321 -3240 3241 0
-3241 -351 352 0
352 -3241 3242 0
-351 -3241 3242 0
-3242 -352 351 0
351 -3242 3243 0
-352 -3242 3243 0
-3243 -381 382 0
382 -3243 3244 0
-381 -3243 3244 0
-3244 -382 381 0
381 -3244 3245 0
-382 -3244 3245 0
-3245 -410 411 0
411 -3245 3246 0
-410 -3245 3246 0
-3246 -411 410 0
410 -3246 3247 0
-411 -3246 3247 0
-3247 -438 439 0
439 -3247 3248 0
-438 -3247 3248 0
-3248 -439 438 0
438 -3248 3249 0
-439 -3248 3249 0
-3249 -465 466 0
466 -3249 3250 0
-465 -3249 3250 0
-3250 -466 465 0
465 -3250 3251 0
-466 -3250 3251 0
-3251 -491 492 0
492 -3251 3252 0
-491 -3251 3252 0
-3252 -492 491 0
3253 0
-858 859 0
859 -3253 3254 0
-858 -3253 3254 0
-3254 -859 858 0
858 -3254 3255 0
-859 -3254 3255 0
-3255 -899 900 0
900 -3255 3256 0
-899 -3255 3256 0
-3256 -900 899 0
899 -3256 3257 0
-900 -3256 3257 0
-3257 -940 941 0
941 -3257 3258 0
-940 -3257 3258 0
-3258 -941 940 0
940 -3258 3259 0
-941 -3258 3259 0
-3259 -981 982 0
982 -3259 3260 0
-981 -3259 3260 0
-3260 -982 981 0
981 -3260 3261 0
-982 -3260 3261 0
-3261 -1022 1023 0
1023 -3261 3262 0
-1022 -3261 3262 0
-3262 -1023 1022 0
1022 -3262 3263 0
-1023 -3262 3263 0
-3263 -1174 1178 0
1178 -3263 3264 0
-1174 -3263 3264 0
-3264 -1178 1174 0
1174 -3264 3265 0
-1178 -3264 3265 0
-3265 -1175 1179 0
1179 -3265 3266 0
-1175 -3265 3266 0
-3266 -1179 1175 0
1175 -3266 3267 0
-1179 -3266 3267 0
-3267 -1176 1180 0
1180 -3267 3268 0
-1176 -3267 3268 0
-3268 -1180 1176 0
1176 -3268 3269 0
-1180 -3268 3269 0
-3269 -1177 1181 0
1181 -3269 3270 0
-1177 -3269 3270 0
-3270 -1181 1177 0
1177 -3270 3271 0
-1181 -3270 3271 0
-3271 -37 38 0
38 -3271 3272 0
-37 -3271 3272 0
-3272 -38 37 0
37 -3272 3273 0
-38 -3272 3273 0
-3273 -76 77 0
77 -3273 3274 0
-76 -3273 3274 0
-3274 -77 76 0
76 -3274 3275 0
-77 -3274 3275 0
-3275 -114 115 0
115 -3275 3276 0
-114 -3275 3276 0
-3276 -115 114 0
114 -3276 3277 0
-115 -3276 3277 0
-3277 -151 152 0
152 -3277 3278 0
-151 -3277 3278 0
-3278 -152 151 0
151 -3278 3279 0
-152 -3278 3279 0
-3279 -187 188 0
188 -3279 3280 0
-187 -3279 3280 0
-3280 -188 187 0
187 -3280 3281 0
-188 -3280 3281 0
-3281 -222 223 0
223 -3281 3282 0
-222 -3281 3282 0
-3282 -223 222 0
222 -3282 3283 0
-223 -3282 3283 0
-3283 -256 257 0
257 -3283 3284 0
-256 -3283 3284 0
-3284 -257 256 0
256 -3284 3285 0
-257 -3284 3285 0
-3285 -289 290 0
290 -3285 3286 0
-289 -3285 3286 0
-3286 -290 289 0
289 -3286 3287 0
-290 -3286 3287 0
-3287 -321 322 0
322 -3287 3288 0
-321 -3287 3288 0
-3288 -322 321 0
321 -3288 3289 0
-322 -3288 3289 0
-3289 -352 353 0
353 -3289 3290 0
-352 -3289 3290 0
-3290 -353 352 0
352 -3290 3291 0
-353 -3290 3291 0
-3291 -382 383 0
383 -3291 3292 0
-382 -3291 3292 0
-3292 -383 382 0
382 -3292 3293 0
-383 -3292 3293 0
-3293 -411 412 0
412 -3293 3294 0
-411 -3293 3294 0
-3294 -412 411 0
411 -3294 3295 0
-412 -3294 3295 0
-3295 -439 440 0
440 -3295 3296 0
-439 -3295 3296 0
-3296 -440 439 0
439 -3296 3297 0
-440 -3296 3297 0
-3297 -466 467 0
467 -3297 3298 0
-466 -3297 3298 0
-3298 -467 466 0
466 -3298 3299 0
-467 -3298 3299 0
-3299 -492 493 0
493 -3299 3300 0
-492 -3299 3300 0
-3300 -493 492 0
3301 0
-859 860 0
860 -3301 3302 0
-859 -3301 3302 0
-3302 -860 859 0
859 -3302 3303 0
-860 -3302 3303 0
-3303 -900 901 0
901 -3303 3304 0
-900 -3303 3304 0
-3304 -901 900 0
900 -3304 3305 0
-901 -3304 3305 0
-3305 -941 942 0
942 -3305 3306 0
-941 -3305 3306 0
-3306 -942 941 0
941 -3306 3307 0
-942 -3306 3307 0
-3307 -982 983 0
983 -3307 3308 0
-982 -3307 3308 0
-3308 -983 982 0
982 -3308 3309 0
-983 -3308 3309 0
-3309 -1023 1024 0
1024 -3309 3310 0
-1023 -3309 3310 0
-3310 -1024 1023 0
1023 -3310 3311 0
-1024 -3310 3311 0
-3311 -1178 1182 0
1182 -3311 3312 0
-1178 -3311 3312 0
-3312 -1182 1178 0
1178 -3312 3313 0
-1182 -3312 3313 0
-3313 -1179 1183 0
1183 -3313 3314 0
-1179 -3313 3314 0
-3314 -1183 1179 0
1179 -3314 3315 0
-1183 -3314 3315 0
-3315 -1180 1184 0
1184 -3315 3316 0
-1180 -3315 3316 0
-3316 -1184 1180 0
1180 -3316 3317 0
-1184 -3316 3317 0
-3317 -1181 1185 0
1185 -3317 3318 0
-1181 -3317 3318 0
-3318 -1185 1181 0
1181 -3318 3319 0
-1185 -3318 3319 0
-3319 -38 39 0
39 -3319 3320 0
-38 -3319 3320 0
-3320 -39 38 0
38 -3320 3321 0
-39 -3320 3321 0
-3321 -77 78 0
78 -3321 3322 0
-77 -3321 3322 0
-3322 -78 77 0
77 -3322 3323 0
-78 -3322 3323 0
-3323 -115 116 0
116 -3323 3324 0
-115 -3323 3324 0
-3324 -116 115 0
115 -3324 3325 0
-116 -3324 3325 0
-3325 -152 153 0
153 -3325 3326 0
-152 -3325 3326 0
-3326 -153 152 0
152 -3326 3327 0
-153 -3326 3327 0
-3327 -188 189 0
189 -3327 3328 0
-188 -3327 3328 0
-3328 -189 188 0
188 -3328 3329 0
-189 -3328 3329 0
-3329 -223 224 0
224 -3329 3330 0
-223 -3329 3330 0
-3330 -224 223 0
223 -3330 3331 0
-224 -3330 3331 0
-3331 -257 258 0
258 -3331 3332 0
-257 -3331 3332 0
-3332 -258 257 0
257 -3332 3333 0
-258 -3332 3333 0
-3333 -290 291 0
291 -3333 3334 0
-290 -3333 3334 0
-3334 -291 290 0
290 -3334 3335 0
-291 -3334 3335 0
-3335 -322 323 0
323 -3335 3336 0
-322 -3335 3336 0
-3336 -323 322 0
322 -3336 3337 0
-323 -3336 3337 0
-3337 -353 354 0
354 -3337 3338 0
-353 -3337 3338 0
-3338 -354 353 0
353 -3338 3339 0
-354 -3338 3339 0
-3339 -383 384 0
384 -3339 3340 0
-383 -3339 3340 0
-3340 -384 383 0
383 -3340 3341 0
-384 -3340 3341 0
-3341 -412 413 0
413 -3341 3342 0
-412 -3341 3342 0
-3342 -413 412 0
412 -3342 3343 0
-413 -3342 3343 0
-3343 -440 441 0
441 -3343 3344 0
-440 -3343 3344 0
-3344 -441 440 0
440 -3344 3345 0
-441 -3344 3345 0
-3345 -467 468 0
468 -3345 3346 0
-467 -3345 3346 0
-3346 -468 467 0
467 -3346 3347 0
-468 -3346 3347 0
-3347 -493 494 0
494 -3347 3348 0
-493 -3347 3348 0
-3348 -494 493 0
3349 0
-860 861 0
861 -3349 3350 0
-860 -3349 3350 0
-3350 -861 860 0
860 -3350 3351 0
-861 -3350 3351 0
-3351 -901 902 0
902 -3351 3352 0
-901 -3351 3352 0
-3352 -902 901 0
901 -3352 3353 0
-902 -3352 3353 0
-3353 -942 943 0
943 -3353 3354 0
-942 -3353 3354 0
-3354 -943 942 0
942 -3354 3355 0
-943 -3354 3355 0
-3355 -983 984 0
984 -3355 3356 0
-983 -3355 3356 0
-3356 -984 983 0
983 -3356 3357 0
-984 -3356 3357 0
-3357 -1024 1025 0
1025 -3357 3358 0
-1024 -3357 3358 0
-3358 -1025 1024 0
1024 -3358 3359 0
-1025 -3358 3359 0
-3359 -1182 1186 0
1186 -3359 3360 0
-1182 -3359 3360 0
-3360 -1186 1182 0
1182 -3360 3361 0
-1186 -3360 3361 0
-3361 -1183 1187 0
1187 -3361 3362 0
-1183 -3361 3362 0
-3362 -1187 1183 0
1183 -3362 3363 0
-1187 -3362 3363 0
-3363 -1184 1188 0
1188 -3363 3364 0
-1184 -3363 3364 0
-3364 -1188 1184 0
1184 -3364 3365 0
-1188 -3364 3365 0
-3365 -1185 1189 0
1189 -3365 3366 0
-1185 -3365 3366 0
-3366 -1189 1185 0
1185 -3366 3367 0
-1189 -3366 3367 0
-3367 -39 40 0
40 -3367 3368 0
-39 -3367 3368 0
-3368 -40 39 0
39 -3368 3369 0
-40 -3368 3369 0
-3369 -78 79 0
79 -3369 3370 0
-78 -3369 3370 0
-3370 -79 78 0
78 -3370 3371 0
-79 -3370 3371 0
-3371 -116 117 0
117 -3371 3372 0
-116 -3371 3372 0
-3372 -117 116 0
116 -3372 3373 0
-117 -3372 3373 0
-3373 -153 154 0
154 -3373 3374 0
-153 -3373 3374 0
-3374 -154 153 0
153 -3374 3375 0
-154 -3374 3375 0
-3375 -189 190 0
190 -3375 3376 0
-189 -3375 3376 0
-3376 -190 189 0
189 -3376 3377 0
-190 -3376 3377 0
-3377 -224 225 0
225 -3377 3378 0
-224 -3377 3378 0
-3378 -225 224 0
224 -3378 3379 0
-225 -3378 3379 0
-3379 -258 259 0
259 -3379 3380 0
-258 -3379 3380 0
-3380 -259 258 0
258 -3380 3381 0
-259 -3380 3381 0
-3381 -291 292 0
292 -3381 3382 0
-291 -3381 3382 0
-3382 -292 291 0
291 -3382 3383 0
-292 -3382 3383 0
-3383 -323 324 0
324 -3383 3384 0
-323 -3383 3384 0
-3384 -324 323 0
323 -3384 3385 0
-324 -3384 3385 0
-3385 -354 355 0
355 -3385 3386 0
-354 -3385 3386 0
-3386 -355 354 0
354 -3386 3387 0
-355 -3386 3387 0
-3387 -384 385 0
385 -3387 3388 0
-384 -3387 3388 0
-3388 -385 384 0
384 -3388 3389 0
-385 -3388 3389 0
-3389 -413 414 0
414 -3389 3390 0
-413 -3389 3390 0
-3390 -414 413 0
413 -3390 3391 0
-414 -3390 3391 0
-3391 -441 442 0
442 -3391 3392 0
-441 -3391 3392 0
-3392 -442 441 0
441 -3392 3393 0
-442 -3392 3393 0
-3393 -468 469 0
469 -3393 3394 0
-468 -3393 3394 0
-3394 -469 468 0
468 -3394 3395 0
-469 -3394 3395 0
-3395 -494 495 0
495 -3395 3396 0
-494 -3395 3396 0
-3396 -495 494 0
