p cnf 1373 11030
-277 -278 0
-277 -279 0
-277 -280 0
-277 -281 0
-277 -282 0
-277 -283 0
-277 -284 0
-277 -285 0
-277 -286 0
-277 -287 0
-277 -288 0
-277 -289 0
-277 -290 0
-277 -291 0
-277 -292 0
-277 -293 0
-277 -294 0
-277 -295 0
-277 -296 0
-277 -297 0
-277 -298 0
-277 -299 0
-277 -300 0
-278 -279 0
-278 -280 0
-278 -281 0
-278 -282 0
-278 -283 0
-278 -284 0
-278 -285 0
-278 -286 0
-278 -287 0
-278 -288 0
-278 -289 0
-278 -290 0
-278 -291 0
-278 -292 0
-278 -293 0
-278 -294 0
-278 -295 0
-278 -296 0
-278 -297 0
-278 -298 0
-278 -299 0
-278 -300 0
-279 -280 0
-279 -281 0
-279 -282 0
-279 -283 0
-279 -284 0
-279 -285 0
-279 -286 0
-279 -287 0
-279 -288 0
-279 -289 0
-279 -290 0
-279 -291 0
-279 -292 0
-279 -293 0
-279 -294 0
-279 -295 0
-279 -296 0
-279 -297 0
-279 -298 0
-279 -299 0
-279 -300 0
-280 -281 0
-280 -282 0
-280 -283 0
-280 -284 0
-280 -285 0
-280 -286 0
-280 -287 0
-280 -288 0
-280 -289 0
-280 -290 0
-280 -291 0
-280 -292 0
-280 -293 0
-280 -294 0
-280 -295 0
-280 -296 0
-280 -297 0
-280 -298 0
-280 -299 0
-280 -300 0
-281 -282 0
-281 -283 0
-281 -284 0
-281 -285 0
-281 -286 0
-281 -287 0
-281 -288 0
-281 -289 0
-281 -290 0
-281 -291 0
-281 -292 0
-281 -293 0
-281 -294 0
-281 -295 0
-281 -296 0
-281 -297 0
-281 -298 0
-281 -299 0
-281 -300 0
-282 -283 0
-282 -284 0
-282 -285 0
-282 -286 0
-282 -287 0
-282 -288 0
-282 -289 0
-282 -290 0
-282 -291 0
-282 -292 0
-282 -293 0
-282 -294 0
-282 -295 0
-282 -296 0
-282 -297 0
-282 -298 0
-282 -299 0
-282 -300 0
-283 -284 0
-283 -285 0
-283 -286 0
-283 -287 0
-283 -288 0
-283 -289 0
-283 -290 0
-283 -291 0
-283 -292 0
-283 -293 0
-283 -294 0
-283 -295 0
-283 -296 0
-283 -297 0
-283 -298 0
-283 -299 0
-283 -300 0
-284 -285 0
-284 -286 0
-284 -287 0
-284 -288 0
-284 -289 0
-284 -290 0
-284 -291 0
-284 -292 0
-284 -293 0
-284 -294 0
-284 -295 0
-284 -296 0
-284 -297 0
-284 -298 0
-284 -299 0
-284 -300 0
-285 -286 0
-285 -287 0
-285 -288 0
-285 -289 0
-285 -290 0
-285 -291 0
-285 -292 0
-285 -293 0
-285 -294 0
-285 -295 0
-285 -296 0
-285 -297 0
-285 -298 0
-285 -299 0
-285 -300 0
-286 -287 0
-286 -288 0
-286 -289 0
-286 -290 0
-286 -291 0
-286 -292 0
-286 -293 0
-286 -294 0
-286 -295 0
-286 -296 0
-286 -297 0
-286 -298 0
-286 -299 0
-286 -300 0
-287 -288 0
-287 -289 0
-287 -290 0
-287 -291 0
-287 -292 0
-287 -293 0
-287 -294 0
-287 -295 0
-287 -296 0
-287 -297 0
-287 -298 0
-287 -299 0
-287 -300 0
-288 -289 0
-288 -290 0
-288 -291 0
-288 -292 0
-288 -293 0
-288 -294 0
-288 -295 0
-288 -296 0
-288 -297 0
-288 -298 0
-288 -299 0
-288 -300 0
-289 -290 0
-289 -291 0
-289 -292 0
-289 -293 0
-289 -294 0
-289 -295 0
-289 -296 0
-289 -297 0
-289 -298 0
-289 -299 0
-289 -300 0
-290 -291 0
-290 -292 0
-290 -293 0
-290 -294 0
-290 -295 0
-290 -296 0
-290 -297 0
-290 -298 0
-290 -299 0
-290 -300 0
-291 -292 0
-291 -293 0
-291 -294 0
-291 -295 0
-291 -296 0
-291 -297 0
-291 -298 0
-291 -299 0
-291 -300 0
-292 -293 0
-292 -294 0
-292 -295 0
-292 -296 0
-292 -297 0
-292 -298 0
-292 -299 0
-292 -300 0
-293 -294 0
-293 -295 0
-293 -296 0
-293 -297 0
-293 -298 0
-293 -299 0
-293 -300 0
-294 -295 0
-294 -296 0
-294 -297 0
-294 -298 0
-294 -299 0
-294 -300 0
-295 -296 0
-295 -297 0
-295 -298 0
-295 -299 0
-295 -300 0
-296 -297 0
-296 -298 0
-296 -299 0
-296 -300 0
-297 -298 0
-297 -299 0
-297 -300 0
-298 -299 0
-298 -300 0
-299 -300 0
277 278 279 280 281 282 283 284 285 286 287 288 289 290 291 292 293 294 295 296 297 298 299 300 0
-301 -302 0
-301 -303 0
-301 -304 0
-301 -305 0
-301 -306 0
-301 -307 0
-301 -308 0
-301 -309 0
-301 -310 0
-301 -311 0
-301 -312 0
-301 -313 0
-301 -314 0
-301 -315 0
-301 -316 0
-301 -317 0
-301 -318 0
-301 -319 0
-301 -320 0
-301 -321 0
-301 -322 0
-301 -323 0
-301 -324 0
-302 -303 0
-302 -304 0
-302 -305 0
-302 -306 0
-302 -307 0
-302 -308 0
-302 -309 0
-302 -310 0
-302 -311 0
-302 -312 0
-302 -313 0
-302 -314 0
-302 -315 0
-302 -316 0
-302 -317 0
-302 -318 0
-302 -319 0
-302 -320 0
-302 -321 0
-302 -322 0
-302 -323 0
-302 -324 0
-303 -304 0
-303 -305 0
-303 -306 0
-303 -307 0
-303 -308 0
-303 -309 0
-303 -310 0
-303 -311 0
-303 -312 0
-303 -313 0
-303 -314 0
-303 -315 0
-303 -316 0
-303 -317 0
-303 -318 0
-303 -319 0
-303 -320 0
-303 -321 0
-303 -322 0
-303 -323 0
-303 -324 0
-304 -305 0
-304 -306 0
-304 -307 0
-304 -308 0
-304 -309 0
-304 -310 0
-304 -311 0
-304 -312 0
-304 -313 0
-304 -314 0
-304 -315 0
-304 -316 0
-304 -317 0
-304 -318 0
-304 -319 0
-304 -320 0
-304 -321 0
-304 -322 0
-304 -323 0
-304 -324 0
-305 -306 0
-305 -307 0
-305 -308 0
-305 -309 0
-305 -310 0
-305 -311 0
-305 -312 0
-305 -313 0
-305 -314 0
-305 -315 0
-305 -316 0
-305 -317 0
-305 -318 0
-305 -319 0
-305 -320 0
-305 -321 0
-305 -322 0
-305 -323 0
-305 -324 0
-306 -307 0
-306 -308 0
-306 -309 0
-306 -310 0
-306 -311 0
-306 -312 0
-306 -313 0
-306 -314 0
-306 -315 0
-306 -316 0
-306 -317 0
-306 -318 0
-306 -319 0
-306 -320 0
-306 -321 0
-306 -322 0
-306 -323 0
-306 -324 0
-307 -308 0
-307 -309 0
-307 -310 0
-307 -311 0
-307 -312 0
-307 -313 0
-307 -314 0
-307 -315 0
-307 -316 0
-307 -317 0
-307 -318 0
-307 -319 0
-307 -320 0
-307 -321 0
-307 -322 0
-307 -323 0
-307 -324 0
-308 -309 0
-308 -310 0
-308 -311 0
-308 -312 0
-308 -313 0
-308 -314 0
-308 -315 0
-308 -316 0
-308 -317 0
-308 -318 0
-308 -319 0
-308 -320 0
-308 -321 0
-308 -322 0
-308 -323 0
-308 -324 0
-309 -310 0
-309 -311 0
-309 -312 0
-309 -313 0
-309 -314 0
-309 -315 0
-309 -316 0
-309 -317 0
-309 -318 0
-309 -319 0
-309 -320 0
-309 -321 0
-309 -322 0
-309 -323 0
-309 -324 0
-310 -311 0
-310 -312 0
-310 -313 0
-310 -314 0
-310 -315 0
-310 -316 0
-310 -317 0
-310 -318 0
-310 -319 0
-310 -320 0
-310 -321 0
-310 -322 0
-310 -323 0
-310 -324 0
-311 -312 0
-311 -313 0
-311 -314 0
-311 -315 0
-311 -316 0
-311 -317 0
-311 -318 0
-311 -319 0
-311 -320 0
-311 -321 0
-311 -322 0
-311 -323 0
-311 -324 0
-312 -313 0
-312 -314 0
-312 -315 0
-312 -316 0
-312 -317 0
-312 -318 0
-312 -319 0
-312 -320 0
-312 -321 0
-312 -322 0
-312 -323 0
-312 -324 0
-313 -314 0
-313 -315 0
-313 -316 0
-313 -317 0
-313 -318 0
-313 -319 0
-313 -320 0
-313 -321 0
-313 -322 0
-313 -323 0
-313 -324 0
-314 -315 0
-314 -316 0
-314 -317 0
-314 -318 0
-314 -319 0
-314 -320 0
-314 -321 0
-314 -322 0
-314 -323 0
-314 -324 0
-315 -316 0
-315 -317 0
-315 -318 0
-315 -319 0
-315 -320 0
-315 -321 0
-315 -322 0
-315 -323 0
-315 -324 0
-316 -317 0
-316 -318 0
-316 -319 0
-316 -320 0
-316 -321 0
-316 -322 0
-316 -323 0
-316 -324 0
-317 -318 0
-317 -319 0
-317 -320 0
-317 -321 0
-317 -322 0
-317 -323 0
-317 -324 0
-318 -319 0
-318 -320 0
-318 -321 0
-318 -322 0
-318 -323 0
-318 -324 0
-319 -320 0
-319 -321 0
-319 -322 0
-319 -323 0
-319 -324 0
-320 -321 0
-320 -322 0
-320 -323 0
-320 -324 0
-321 -322 0
-321 -323 0
-321 -324 0
-322 -323 0
-322 -324 0
-323 -324 0
301 302 303 304 305 306 307 308 309 310 311 312 313 314 315 316 317 318 319 320 321 322 323 324 0
-325 -326 0
-325 -327 0
-325 -328 0
-325 -329 0
-325 -330 0
-325 -331 0
-325 -332 0
-325 -333 0
-325 -334 0
-325 -335 0
-325 -336 0
-325 -337 0
-325 -338 0
-325 -339 0
-325 -340 0
-325 -341 0
-325 -342 0
-325 -343 0
-325 -344 0
-325 -345 0
-325 -346 0
-325 -347 0
-325 -348 0
-326 -327 0
-326 -328 0
-326 -329 0
-326 -330 0
-326 -331 0
-326 -332 0
-326 -333 0
-326 -334 0
-326 -335 0
-326 -336 0
-326 -337 0
-326 -338 0
-326 -339 0
-326 -340 0
-326 -341 0
-326 -342 0
-326 -343 0
-326 -344 0
-326 -345 0
-326 -346 0
-326 -347 0
-326 -348 0
-327 -328 0
-327 -329 0
-327 -330 0
-327 -331 0
-327 -332 0
-327 -333 0
-327 -334 0
-327 -335 0
-327 -336 0
-327 -337 0
-327 -338 0
-327 -339 0
-327 -340 0
-327 -341 0
-327 -342 0
-327 -343 0
-327 -344 0
-327 -345 0
-327 -346 0
-327 -347 0
-327 -348 0
-328 -329 0
-328 -330 0
-328 -331 0
-328 -332 0
-328 -333 0
-328 -334 0
-328 -335 0
-328 -336 0
-328 -337 0
-328 -338 0
-328 -339 0
-328 -340 0
-328 -341 0
-328 -342 0
-328 -343 0
-328 -344 0
-328 -345 0
-328 -346 0
-328 -347 0
-328 -348 0
-329 -330 0
-329 -331 0
-329 -332 0
-329 -333 0
-329 -334 0
-329 -335 0
-329 -336 0
-329 -337 0
-329 -338 0
-329 -339 0
-329 -340 0
-329 -341 0
-329 -342 0
-329 -343 0
-329 -344 0
-329 -345 0
-329 -346 0
-329 -347 0
-329 -348 0
-330 -331 0
-330 -332 0
-330 -333 0
-330 -334 0
-330 -335 0
-330 -336 0
-330 -337 0
-330 -338 0
-330 -339 0
-330 -340 0
-330 -341 0
-330 -342 0
-330 -343 0
-330 -344 0
-330 -345 0
-330 -346 0
-330 -347 0
-330 -348 0
-331 -332 0
-331 -333 0
-331 -334 0
-331 -335 0
-331 -336 0
-331 -337 0
-331 -338 0
-331 -339 0
-331 -340 0
-331 -341 0
-331 -342 0
-331 -343 0
-331 -344 0
-331 -345 0
-331 -346 0
-331 -347 0
-331 -348 0
-332 -333 0
-332 -334 0
-332 -335 0
-332 -336 0
-332 -337 0
-332 -338 0
-332 -339 0
-332 -340 0
-332 -341 0
-332 -342 0
-332 -343 0
-332 -344 0
-332 -345 0
-332 -346 0
-332 -347 0
-332 -348 0
-333 -334 0
-333 -335 0
-333 -336 0
-333 -337 0
-333 -338 0
-333 -339 0
-333 -340 0
-333 -341 0
-333 -342 0
-333 -343 0
-333 -344 0
-333 -345 0
-333 -346 0
-333 -347 0
-333 -348 0
-334 -335 0
-334 -336 0
-334 -337 0
-334 -338 0
-334 -339 0
-334 -340 0
-334 -341 0
-334 -342 0
-334 -343 0
-334 -344 0
-334 -345 0
-334 -346 0
-334 -347 0
-334 -348 0
-335 -336 0
-335 -337 0
-335 -338 0
-335 -339 0
-335 -340 0
-335 -341 0
-335 -342 0
-335 -343 0
-335 -344 0
-335 -345 0
-335 -346 0
-335 -347 0
-335 -348 0
-336 -337 0
-336 -338 0
-336 -339 0
-336 -340 0
-336 -341 0
-336 -342 0
-336 -343 0
-336 -344 0
-336 -345 0
-336 -346 0
-336 -347 0
-336 -348 0
-337 -338 0
-337 -339 0
-337 -340 0
-337 -341 0
-337 -342 0
-337 -343 0
-337 -344 0
-337 -345 0
-337 -346 0
-337 -347 0
-337 -348 0
-338 -339 0
-338 -340 0
-338 -341 0
-338 -342 0
-338 -343 0
-338 -344 0
-338 -345 0
-338 -346 0
-338 -347 0
-338 -348 0
-339 -340 0
-339 -341 0
-339 -342 0
-339 -343 0
-339 -344 0
-339 -345 0
-339 -346 0
-339 -347 0
-339 -348 0
-340 -341 0
-340 -342 0
-340 -343 0
-340 -344 0
-340 -345 0
-340 -346 0
-340 -347 0
-340 -348 0
-341 -342 0
-341 -343 0
-341 -344 0
-341 -345 0
-341 -346 0
-341 -347 0
-341 -348 0
-342 -343 0
-342 -344 0
-342 -345 0
-342 -346 0
-342 -347 0
-342 -348 0
-343 -344 0
-343 -345 0
-343 -346 0
-343 -347 0
-343 -348 0
-344 -345 0
-344 -346 0
-344 -347 0
-344 -348 0
-345 -346 0
-345 -347 0
-345 -348 0
-346 -347 0
-346 -348 0
-347 -348 0
325 326 327 328 329 330 331 332 333 334 335 336 337 338 339 340 341 342 343 344 345 346 347 348 0
-349 -350 0
-349 -351 0
-349 -352 0
-349 -353 0
-349 -354 0
-349 -355 0
-349 -356 0
-349 -357 0
-349 -358 0
-349 -359 0
-349 -360 0
-349 -361 0
-349 -362 0
-349 -363 0
-349 -364 0
-349 -365 0
-349 -366 0
-349 -367 0
-349 -368 0
-349 -369 0
-349 -370 0
-349 -371 0
-349 -372 0
-350 -351 0
-350 -352 0
-350 -353 0
-350 -354 0
-350 -355 0
-350 -356 0
-350 -357 0
-350 -358 0
-350 -359 0
-350 -360 0
-350 -361 0
-350 -362 0
-350 -363 0
-350 -364 0
-350 -365 0
-350 -366 0
-350 -367 0
-350 -368 0
-350 -369 0
-350 -370 0
-350 -371 0
-350 -372 0
-351 -352 0
-351 -353 0
-351 -354 0
-351 -355 0
-351 -356 0
-351 -357 0
-351 -358 0
-351 -359 0
-351 -360 0
-351 -361 0
-351 -362 0
-351 -363 0
-351 -364 0
-351 -365 0
-351 -366 0
-351 -367 0
-351 -368 0
-351 -369 0
-351 -370 0
-351 -371 0
-351 -372 0
-352 -353 0
-352 -354 0
-352 -355 0
-352 -356 0
-352 -357 0
-352 -358 0
-352 -359 0
-352 -360 0
-352 -361 0
-352 -362 0
-352 -363 0
-352 -364 0
-352 -365 0
-352 -366 0
-352 -367 0
-352 -368 0
-352 -369 0
-352 -370 0
-352 -371 0
-352 -372 0
-353 -354 0
-353 -355 0
-353 -356 0
-353 -357 0
-353 -358 0
-353 -359 0
-353 -360 0
-353 -361 0
-353 -362 0
-353 -363 0
-353 -364 0
-353 -365 0
-353 -366 0
-353 -367 0
-353 -368 0
-353 -369 0
-353 -370 0
-353 -371 0
-353 -372 0
-354 -355 0
-354 -356 0
-354 -357 0
-354 -358 0
-354 -359 0
-354 -360 0
-354 -361 0
-354 -362 0
-354 -363 0
-354 -364 0
-354 -365 0
-354 -366 0
-354 -367 0
-354 -368 0
-354 -369 0
-354 -370 0
-354 -371 0
-354 -372 0
-355 -356 0
-355 -357 0
-355 -358 0
-355 -359 0
-355 -360 0
-355 -361 0
-355 -362 0
-355 -363 0
-355 -364 0
-355 -365 0
-355 -366 0
-355 -367 0
-355 -368 0
-355 -369 0
-355 -370 0
-355 -371 0
-355 -372 0
-356 -357 0
-356 -358 0
-356 -359 0
-356 -360 0
-356 -361 0
-356 -362 0
-356 -363 0
-356 -364 0
-356 -365 0
-356 -366 0
-356 -367 0
-356 -368 0
-356 -369 0
-356 -370 0
-356 -371 0
-356 -372 0
-357 -358 0
-357 -359 0
-357 -360 0
-357 -361 0
-357 -362 0
-357 -363 0
-357 -364 0
-357 -365 0
-357 -366 0
-357 -367 0
-357 -368 0
-357 -369 0
-357 -370 0
-357 -371 0
-357 -372 0
-358 -359 0
-358 -360 0
-358 -361 0
-358 -362 0
-358 -363 0
-358 -364 0
-358 -365 0
-358 -366 0
-358 -367 0
-358 -368 0
-358 -369 0
-358 -370 0
-358 -371 0
-358 -372 0
-359 -360 0
-359 -361 0
-359 -362 0
-359 -363 0
-359 -364 0
-359 -365 0
-359 -366 0
-359 -367 0
-359 -368 0
-359 -369 0
-359 -370 0
-359 -371 0
-359 -372 0
-360 -361 0
-360 -362 0
-360 -363 0
-360 -364 0
-360 -365 0
-360 -366 0
-360 -367 0
-360 -368 0
-360 -369 0
-360 -370 0
-360 -371 0
-360 -372 0
-361 -362 0
-361 -363 0
-361 -364 0
-361 -365 0
-361 -366 0
-361 -367 0
-361 -368 0
-361 -369 0
-361 -370 0
-361 -371 0
-361 -372 0
-362 -363 0
-362 -364 0
-362 -365 0
-362 -366 0
-362 -367 0
-362 -368 0
-362 -369 0
-362 -370 0
-362 -371 0
-362 -372 0
-363 -364 0
-363 -365 0
-363 -366 0
-363 -367 0
-363 -368 0
-363 -369 0
-363 -370 0
-363 -371 0
-363 -372 0
-364 -365 0
-364 -366 0
-364 -367 0
-364 -368 0
-364 -369 0
-364 -370 0
-364 -371 0
-364 -372 0
-365 -366 0
-365 -367 0
-365 -368 0
-365 -369 0
-365 -370 0
-365 -371 0
-365 -372 0
-366 -367 0
-366 -368 0
-366 -369 0
-366 -370 0
-366 -371 0
-366 -372 0
-367 -368 0
-367 -369 0
-367 -370 0
-367 -371 0
-367 -372 0
-368 -369 0
-368 -370 0
-368 -371 0
-368 -372 0
-369 -370 0
-369 -371 0
-369 -372 0
-370 -371 0
-370 -372 0
-371 -372 0
349 350 351 352 353 354 355 356 357 358 359 360 361 362 363 364 365 366 367 368 369 370 371 372 0
-373 -374 0
-373 -375 0
-373 -376 0
-373 -377 0
-373 -378 0
-373 -379 0
-373 -380 0
-373 -381 0
-373 -382 0
-373 -383 0
-373 -384 0
-373 -385 0
-373 -386 0
-373 -387 0
-373 -388 0
-373 -389 0
-373 -390 0
-373 -391 0
-373 -392 0
-373 -393 0
-373 -394 0
-373 -395 0
-373 -396 0
-374 -375 0
-374 -376 0
-374 -377 0
-374 -378 0
-374 -379 0
-374 -380 0
-374 -381 0
-374 -382 0
-374 -383 0
-374 -384 0
-374 -385 0
-374 -386 0
-374 -387 0
-374 -388 0
-374 -389 0
-374 -390 0
-374 -391 0
-374 -392 0
-374 -393 0
-374 -394 0
-374 -395 0
-374 -396 0
-375 -376 0
-375 -377 0
-375 -378 0
-375 -379 0
-375 -380 0
-375 -381 0
-375 -382 0
-375 -383 0
-375 -384 0
-375 -385 0
-375 -386 0
-375 -387 0
-375 -388 0
-375 -389 0
-375 -390 0
-375 -391 0
-375 -392 0
-375 -393 0
-375 -394 0
-375 -395 0
-375 -396 0
-376 -377 0
-376 -378 0
-376 -379 0
-376 -380 0
-376 -381 0
-376 -382 0
-376 -383 0
-376 -384 0
-376 -385 0
-376 -386 0
-376 -387 0
-376 -388 0
-376 -389 0
-376 -390 0
-376 -391 0
-376 -392 0
-376 -393 0
-376 -394 0
-376 -395 0
-376 -396 0
-377 -378 0
-377 -379 0
-377 -380 0
-377 -381 0
-377 -382 0
-377 -383 0
-377 -384 0
-377 -385 0
-377 -386 0
-377 -387 0
-377 -388 0
-377 -389 0
-377 -390 0
-377 -391 0
-377 -392 0
-377 -393 0
-377 -394 0
-377 -395 0
-377 -396 0
-378 -379 0
-378 -380 0
-378 -381 0
-378 -382 0
-378 -383 0
-378 -384 0
-378 -385 0
-378 -386 0
-378 -387 0
-378 -388 0
-378 -389 0
-378 -390 0
-378 -391 0
-378 -392 0
-378 -393 0
-378 -394 0
-378 -395 0
-378 -396 0
-379 -380 0
-379 -381 0
-379 -382 0
-379 -383 0
-379 -384 0
-379 -385 0
-379 -386 0
-379 -387 0
-379 -388 0
-379 -389 0
-379 -390 0
-379 -391 0
-379 -392 0
-379 -393 0
-379 -394 0
-379 -395 0
-379 -396 0
-380 -381 0
-380 -382 0
-380 -383 0
-380 -384 0
-380 -385 0
-380 -386 0
-380 -387 0
-380 -388 0
-380 -389 0
-380 -390 0
-380 -391 0
-380 -392 0
-380 -393 0
-380 -394 0
-380 -395 0
-380 -396 0
-381 -382 0
-381 -383 0
-381 -384 0
-381 -385 0
-381 -386 0
-381 -387 0
-381 -388 0
-381 -389 0
-381 -390 0
-381 -391 0
-381 -392 0
-381 -393 0
-381 -394 0
-381 -395 0
-381 -396 0
-382 -383 0
-382 -384 0
-382 -385 0
-382 -386 0
-382 -387 0
-382 -388 0
-382 -389 0
-382 -390 0
-382 -391 0
-382 -392 0
-382 -393 0
-382 -394 0
-382 -395 0
-382 -396 0
-383 -384 0
-383 -385 0
-383 -386 0
-383 -387 0
-383 -388 0
-383 -389 0
-383 -390 0
-383 -391 0
-383 -392 0
-383 -393 0
-383 -394 0
-383 -395 0
-383 -396 0
-384 -385 0
-384 -386 0
-384 -387 0
-384 -388 0
-384 -389 0
-384 -390 0
-384 -391 0
-384 -392 0
-384 -393 0
-384 -394 0
-384 -395 0
-384 -396 0
-385 -386 0
-385 -387 0
-385 -388 0
-385 -389 0
-385 -390 0
-385 -391 0
-385 -392 0
-385 -393 0
-385 -394 0
-385 -395 0
-385 -396 0
-386 -387 0
-386 -388 0
-386 -389 0
-386 -390 0
-386 -391 0
-386 -392 0
-386 -393 0
-386 -394 0
-386 -395 0
-386 -396 0
-387 -388 0
-387 -389 0
-387 -390 0
-387 -391 0
-387 -392 0
-387 -393 0
-387 -394 0
-387 -395 0
-387 -396 0
-388 -389 0
-388 -390 0
-388 -391 0
-388 -392 0
-388 -393 0
-388 -394 0
-388 -395 0
-388 -396 0
-389 -390 0
-389 -391 0
-389 -392 0
-389 -393 0
-389 -394 0
-389 -395 0
-389 -396 0
-390 -391 0
-390 -392 0
-390 -393 0
-390 -394 0
-390 -395 0
-390 -396 0
-391 -392 0
-391 -393 0
-391 -394 0
-391 -395 0
-391 -396 0
-392 -393 0
-392 -394 0
-392 -395 0
-392 -396 0
-393 -394 0
-393 -395 0
-393 -396 0
-394 -395 0
-394 -396 0
-395 -396 0
373 374 375 376 377 378 379 380 381 382 383 384 385 386 387 388 389 390 391 392 393 394 395 396 0
-277 -301 0
-277 -325 0
-277 -349 0
-277 -373 0
-301 -325 0
-301 -349 0
-301 -373 0
-325 -349 0
-325 -373 0
-349 -373 0
-278 -302 0
-278 -326 0
-278 -350 0
-278 -374 0
-302 -326 0
-302 -350 0
-302 -374 0
-326 -350 0
-326 -374 0
-350 -374 0
-279 -303 0
-279 -327 0
-279 -351 0
-279 -375 0
-303 -327 0
-303 -351 0
-303 -375 0
-327 -351 0
-327 -375 0
-351 -375 0
-280 -304 0
-280 -328 0
-280 -352 0
-280 -376 0
-304 -328 0
-304 -352 0
-304 -376 0
-328 -352 0
-328 -376 0
-352 -376 0
-281 -305 0
-281 -329 0
-281 -353 0
-281 -377 0
-305 -329 0
-305 -353 0
-305 -377 0
-329 -353 0
-329 -377 0
-353 -377 0
-282 -306 0
-282 -330 0
-282 -354 0
-282 -378 0
-306 -330 0
-306 -354 0
-306 -378 0
-330 -354 0
-330 -378 0
-354 -378 0
-283 -307 0
-283 -331 0
-283 -355 0
-283 -379 0
-307 -331 0
-307 -355 0
-307 -379 0
-331 -355 0
-331 -379 0
-355 -379 0
-284 -308 0
-284 -332 0
-284 -356 0
-284 -380 0
-308 -332 0
-308 -356 0
-308 -380 0
-332 -356 0
-332 -380 0
-356 -380 0
-285 -309 0
-285 -333 0
-285 -357 0
-285 -381 0
-309 -333 0
-309 -357 0
-309 -381 0
-333 -357 0
-333 -381 0
-357 -381 0
-286 -310 0
-286 -334 0
-286 -358 0
-286 -382 0
-310 -334 0
-310 -358 0
-310 -382 0
-334 -358 0
-334 -382 0
-358 -382 0
-287 -311 0
-287 -335 0
-287 -359 0
-287 -383 0
-311 -335 0
-311 -359 0
-311 -383 0
-335 -359 0
-335 -383 0
-359 -383 0
-288 -312 0
-288 -336 0
-288 -360 0
-288 -384 0
-312 -336 0
-312 -360 0
-312 -384 0
-336 -360 0
-336 -384 0
-360 -384 0
-289 -313 0
-289 -337 0
-289 -361 0
-289 -385 0
-313 -337 0
-313 -361 0
-313 -385 0
-337 -361 0
-337 -385 0
-361 -385 0
-290 -314 0
-290 -338 0
-290 -362 0
-290 -386 0
-314 -338 0
-314 -362 0
-314 -386 0
-338 -362 0
-338 -386 0
-362 -386 0
-291 -315 0
-291 -339 0
-291 -363 0
-291 -387 0
-315 -339 0
-315 -363 0
-315 -387 0
-339 -363 0
-339 -387 0
-363 -387 0
-292 -316 0
-292 -340 0
-292 -364 0
-292 -388 0
-316 -340 0
-316 -364 0
-316 -388 0
-340 -364 0
-340 -388 0
-364 -388 0
-293 -317 0
-293 -341 0
-293 -365 0
-293 -389 0
-317 -341 0
-317 -365 0
-317 -389 0
-341 -365 0
-341 -389 0
-365 -389 0
-294 -318 0
-294 -342 0
-294 -366 0
-294 -390 0
-318 -342 0
-318 -366 0
-318 -390 0
-342 -366 0
-342 -390 0
-366 -390 0
-295 -319 0
-295 -343 0
-295 -367 0
-295 -391 0
-319 -343 0
-319 -367 0
-319 -391 0
-343 -367 0
-343 -391 0
-367 -391 0
-296 -320 0
-296 -344 0
-296 -368 0
-296 -392 0
-320 -344 0
-320 -368 0
-320 -392 0
-344 -368 0
-344 -392 0
-368 -392 0
-297 -321 0
-297 -345 0
-297 -369 0
-297 -393 0
-321 -345 0
-321 -369 0
-321 -393 0
-345 -369 0
-345 -393 0
-369 -393 0
-298 -322 0
-298 -346 0
-298 -370 0
-298 -394 0
-322 -346 0
-322 -370 0
-322 -394 0
-346 -370 0
-346 -394 0
-370 -394 0
-299 -323 0
-299 -347 0
-299 -371 0
-299 -395 0
-323 -347 0
-323 -371 0
-323 -395 0
-347 -371 0
-347 -395 0
-371 -395 0
-300 -324 0
-300 -348 0
-300 -372 0
-300 -396 0
-324 -348 0
-324 -372 0
-324 -396 0
-348 -372 0
-348 -396 0
-372 -396 0
1 -277 -302 0
1 -277 -326 0
1 -277 -350 0
1 -277 -374 0
1 -301 -278 0
1 -301 -326 0
1 -301 -350 0
1 -301 -374 0
1 -325 -278 0
1 -325 -302 0
1 -325 -350 0
1 -325 -374 0
1 -349 -278 0
1 -349 -302 0
1 -349 -326 0
1 -349 -374 0
1 -373 -278 0
1 -373 -302 0
1 -373 -326 0
1 -373 -350 0
2 -277 -303 0
2 -277 -327 0
2 -277 -351 0
2 -277 -375 0
2 -301 -279 0
2 -301 -327 0
2 -301 -351 0
2 -301 -375 0
2 -325 -279 0
2 -325 -303 0
2 -325 -351 0
2 -325 -375 0
2 -349 -279 0
2 -349 -303 0
2 -349 -327 0
2 -349 -375 0
2 -373 -279 0
2 -373 -303 0
2 -373 -327 0
2 -373 -351 0
3 -277 -304 0
3 -277 -328 0
3 -277 -352 0
3 -277 -376 0
3 -301 -280 0
3 -301 -328 0
3 -301 -352 0
3 -301 -376 0
3 -325 -280 0
3 -325 -304 0
3 -325 -352 0
3 -325 -376 0
3 -349 -280 0
3 -349 -304 0
3 -349 -328 0
3 -349 -376 0
3 -373 -280 0
3 -373 -304 0
3 -373 -328 0
3 -373 -352 0
4 -277 -305 0
4 -277 -329 0
4 -277 -353 0
4 -277 -377 0
4 -301 -281 0
4 -301 -329 0
4 -301 -353 0
4 -301 -377 0
4 -325 -281 0
4 -325 -305 0
4 -325 -353 0
4 -325 -377 0
4 -349 -281 0
4 -349 -305 0
4 -349 -329 0
4 -349 -377 0
4 -373 -281 0
4 -373 -305 0
4 -373 -329 0
4 -373 -353 0
5 -277 -306 0
5 -277 -330 0
5 -277 -354 0
5 -277 -378 0
5 -301 -282 0
5 -301 -330 0
5 -301 -354 0
5 -301 -378 0
5 -325 -282 0
5 -325 -306 0
5 -325 -354 0
5 -325 -378 0
5 -349 -282 0
5 -349 -306 0
5 -349 -330 0
5 -349 -378 0
5 -373 -282 0
5 -373 -306 0
5 -373 -330 0
5 -373 -354 0
6 -277 -307 0
6 -277 -331 0
6 -277 -355 0
6 -277 -379 0
6 -301 -283 0
6 -301 -331 0
6 -301 -355 0
6 -301 -379 0
6 -325 -283 0
6 -325 -307 0
6 -325 -355 0
6 -325 -379 0
6 -349 -283 0
6 -349 -307 0
6 -349 -331 0
6 -349 -379 0
6 -373 -283 0
6 -373 -307 0
6 -373 -331 0
6 -373 -355 0
7 -277 -308 0
7 -277 -332 0
7 -277 -356 0
7 -277 -380 0
7 -301 -284 0
7 -301 -332 0
7 -301 -356 0
7 -301 -380 0
7 -325 -284 0
7 -325 -308 0
7 -325 -356 0
7 -325 -380 0
7 -349 -284 0
7 -349 -308 0
7 -349 -332 0
7 -349 -380 0
7 -373 -284 0
7 -373 -308 0
7 -373 -332 0
7 -373 -356 0
8 -277 -309 0
8 -277 -333 0
8 -277 -357 0
8 -277 -381 0
8 -301 -285 0
8 -301 -333 0
8 -301 -357 0
8 -301 -381 0
8 -325 -285 0
8 -325 -309 0
8 -325 -357 0
8 -325 -381 0
8 -349 -285 0
8 -349 -309 0
8 -349 -333 0
8 -349 -381 0
8 -373 -285 0
8 -373 -309 0
8 -373 -333 0
8 -373 -357 0
9 -277 -310 0
9 -277 -334 0
9 -277 -358 0
9 -277 -382 0
9 -301 -286 0
9 -301 -334 0
9 -301 -358 0
9 -301 -382 0
9 -325 -286 0
9 -325 -310 0
9 -325 -358 0
9 -325 -382 0
9 -349 -286 0
9 -349 -310 0
9 -349 -334 0
9 -349 -382 0
9 -373 -286 0
9 -373 -310 0
9 -373 -334 0
9 -373 -358 0
10 -277 -311 0
10 -277 -335 0
10 -277 -359 0
10 -277 -383 0
10 -301 -287 0
10 -301 -335 0
10 -301 -359 0
10 -301 -383 0
10 -325 -287 0
10 -325 -311 0
10 -325 -359 0
10 -325 -383 0
10 -349 -287 0
10 -349 -311 0
10 -349 -335 0
10 -349 -383 0
10 -373 -287 0
10 -373 -311 0
10 -373 -335 0
10 -373 -359 0
11 -277 -312 0
11 -277 -336 0
11 -277 -360 0
11 -277 -384 0
11 -301 -288 0
11 -301 -336 0
11 -301 -360 0
11 -301 -384 0
11 -325 -288 0
11 -325 -312 0
11 -325 -360 0
11 -325 -384 0
11 -349 -288 0
11 -349 -312 0
11 -349 -336 0
11 -349 -384 0
11 -373 -288 0
11 -373 -312 0
11 -373 -336 0
11 -373 -360 0
12 -277 -313 0
12 -277 -337 0
12 -277 -361 0
12 -277 -385 0
12 -301 -289 0
12 -301 -337 0
12 -301 -361 0
12 -301 -385 0
12 -325 -289 0
12 -325 -313 0
12 -325 -361 0
12 -325 -385 0
12 -349 -289 0
12 -349 -313 0
12 -349 -337 0
12 -349 -385 0
12 -373 -289 0
12 -373 -313 0
12 -373 -337 0
12 -373 -361 0
13 -277 -314 0
13 -277 -338 0
13 -277 -362 0
13 -277 -386 0
13 -301 -290 0
13 -301 -338 0
13 -301 -362 0
13 -301 -386 0
13 -325 -290 0
13 -325 -314 0
13 -325 -362 0
13 -325 -386 0
13 -349 -290 0
13 -349 -314 0
13 -349 -338 0
13 -349 -386 0
13 -373 -290 0
13 -373 -314 0
13 -373 -338 0
13 -373 -362 0
14 -277 -315 0
14 -277 -339 0
14 -277 -363 0
14 -277 -387 0
14 -301 -291 0
14 -301 -339 0
14 -301 -363 0
14 -301 -387 0
14 -325 -291 0
14 -325 -315 0
14 -325 -363 0
14 -325 -387 0
14 -349 -291 0
14 -349 -315 0
14 -349 -339 0
14 -349 -387 0
14 -373 -291 0
14 -373 -315 0
14 -373 -339 0
14 -373 -363 0
15 -277 -316 0
15 -277 -340 0
15 -277 -364 0
15 -277 -388 0
15 -301 -292 0
15 -301 -340 0
15 -301 -364 0
15 -301 -388 0
15 -325 -292 0
15 -325 -316 0
15 -325 -364 0
15 -325 -388 0
15 -349 -292 0
15 -349 -316 0
15 -349 -340 0
15 -349 -388 0
15 -373 -292 0
15 -373 -316 0
15 -373 -340 0
15 -373 -364 0
16 -277 -317 0
16 -277 -341 0
16 -277 -365 0
16 -277 -389 0
16 -301 -293 0
16 -301 -341 0
16 -301 -365 0
16 -301 -389 0
16 -325 -293 0
16 -325 -317 0
16 -325 -365 0
16 -325 -389 0
16 -349 -293 0
16 -349 -317 0
16 -349 -341 0
16 -349 -389 0
16 -373 -293 0
16 -373 -317 0
16 -373 -341 0
16 -373 -365 0
17 -277 -318 0
17 -277 -342 0
17 -277 -366 0
17 -277 -390 0
17 -301 -294 0
17 -301 -342 0
17 -301 -366 0
17 -301 -390 0
17 -325 -294 0
17 -325 -318 0
17 -325 -366 0
17 -325 -390 0
17 -349 -294 0
17 -349 -318 0
17 -349 -342 0
17 -349 -390 0
17 -373 -294 0
17 -373 -318 0
17 -373 -342 0
17 -373 -366 0
18 -277 -319 0
18 -277 -343 0
18 -277 -367 0
18 -277 -391 0
18 -301 -295 0
18 -301 -343 0
18 -301 -367 0
18 -301 -391 0
18 -325 -295 0
18 -325 -319 0
18 -325 -367 0
18 -325 -391 0
18 -349 -295 0
18 -349 -319 0
18 -349 -343 0
18 -349 -391 0
18 -373 -295 0
18 -373 -319 0
18 -373 -343 0
18 -373 -367 0
19 -277 -320 0
19 -277 -344 0
19 -277 -368 0
19 -277 -392 0
19 -301 -296 0
19 -301 -344 0
19 -301 -368 0
19 -301 -392 0
19 -325 -296 0
19 -325 -320 0
19 -325 -368 0
19 -325 -392 0
19 -349 -296 0
19 -349 -320 0
19 -349 -344 0
19 -349 -392 0
19 -373 -296 0
19 -373 -320 0
19 -373 -344 0
19 -373 -368 0
20 -277 -321 0
20 -277 -345 0
20 -277 -369 0
20 -277 -393 0
20 -301 -297 0
20 -301 -345 0
20 -301 -369 0
20 -301 -393 0
20 -325 -297 0
20 -325 -321 0
20 -325 -369 0
20 -325 -393 0
20 -349 -297 0
20 -349 -321 0
20 -349 -345 0
20 -349 -393 0
20 -373 -297 0
20 -373 -321 0
20 -373 -345 0
20 -373 -369 0
21 -277 -322 0
21 -277 -346 0
21 -277 -370 0
21 -277 -394 0
21 -301 -298 0
21 -301 -346 0
21 -301 -370 0
21 -301 -394 0
21 -325 -298 0
21 -325 -322 0
21 -325 -370 0
21 -325 -394 0
21 -349 -298 0
21 -349 -322 0
21 -349 -346 0
21 -349 -394 0
21 -373 -298 0
21 -373 -322 0
21 -373 -346 0
21 -373 -370 0
22 -277 -323 0
22 -277 -347 0
22 -277 -371 0
22 -277 -395 0
22 -301 -299 0
22 -301 -347 0
22 -301 -371 0
22 -301 -395 0
22 -325 -299 0
22 -325 -323 0
22 -325 -371 0
22 -325 -395 0
22 -349 -299 0
22 -349 -323 0
22 -349 -347 0
22 -349 -395 0
22 -373 -299 0
22 -373 -323 0
22 -373 -347 0
22 -373 -371 0
23 -277 -324 0
23 -277 -348 0
23 -277 -372 0
23 -277 -396 0
23 -301 -300 0
23 -301 -348 0
23 -301 -372 0
23 -301 -396 0
23 -325 -300 0
23 -325 -324 0
23 -325 -372 0
23 -325 -396 0
23 -349 -300 0
23 -349 -324 0
23 -349 -348 0
23 -349 -396 0
23 -373 -300 0
23 -373 -324 0
23 -373 -348 0
23 -373 -372 0
24 -278 -303 0
24 -278 -327 0
24 -278 -351 0
24 -278 -375 0
24 -302 -279 0
24 -302 -327 0
24 -302 -351 0
24 -302 -375 0
24 -326 -279 0
24 -326 -303 0
24 -326 -351 0
24 -326 -375 0
24 -350 -279 0
24 -350 -303 0
24 -350 -327 0
24 -350 -375 0
24 -374 -279 0
24 -374 -303 0
24 -374 -327 0
24 -374 -351 0
25 -278 -304 0
25 -278 -328 0
25 -278 -352 0
25 -278 -376 0
25 -302 -280 0
25 -302 -328 0
25 -302 -352 0
25 -302 -376 0
25 -326 -280 0
25 -326 -304 0
25 -326 -352 0
25 -326 -376 0
25 -350 -280 0
25 -350 -304 0
25 -350 -328 0
25 -350 -376 0
25 -374 -280 0
25 -374 -304 0
25 -374 -328 0
25 -374 -352 0
26 -278 -305 0
26 -278 -329 0
26 -278 -353 0
26 -278 -377 0
26 -302 -281 0
26 -302 -329 0
26 -302 -353 0
26 -302 -377 0
26 -326 -281 0
26 -326 -305 0
26 -326 -353 0
26 -326 -377 0
26 -350 -281 0
26 -350 -305 0
26 -350 -329 0
26 -350 -377 0
26 -374 -281 0
26 -374 -305 0
26 -374 -329 0
26 -374 -353 0
27 -278 -306 0
27 -278 -330 0
27 -278 -354 0
27 -278 -378 0
27 -302 -282 0
27 -302 -330 0
27 -302 -354 0
27 -302 -378 0
27 -326 -282 0
27 -326 -306 0
27 -326 -354 0
27 -326 -378 0
27 -350 -282 0
27 -350 -306 0
27 -350 -330 0
27 -350 -378 0
27 -374 -282 0
27 -374 -306 0
27 -374 -330 0
27 -374 -354 0
28 -278 -307 0
28 -278 -331 0
28 -278 -355 0
28 -278 -379 0
28 -302 -283 0
28 -302 -331 0
28 -302 -355 0
28 -302 -379 0
28 -326 -283 0
28 -326 -307 0
28 -326 -355 0
28 -326 -379 0
28 -350 -283 0
28 -350 -307 0
28 -350 -331 0
28 -350 -379 0
28 -374 -283 0
28 -374 -307 0
28 -374 -331 0
28 -374 -355 0
29 -278 -308 0
29 -278 -332 0
29 -278 -356 0
29 -278 -380 0
29 -302 -284 0
29 -302 -332 0
29 -302 -356 0
29 -302 -380 0
29 -326 -284 0
29 -326 -308 0
29 -326 -356 0
29 -326 -380 0
29 -350 -284 0
29 -350 -308 0
29 -350 -332 0
29 -350 -380 0
29 -374 -284 0
29 -374 -308 0
29 -374 -332 0
29 -374 -356 0
30 -278 -309 0
30 -278 -333 0
30 -278 -357 0
30 -278 -381 0
30 -302 -285 0
30 -302 -333 0
30 -302 -357 0
30 -302 -381 0
30 -326 -285 0
30 -326 -309 0
30 -326 -357 0
30 -326 -381 0
30 -350 -285 0
30 -350 -309 0
30 -350 -333 0
30 -350 -381 0
30 -374 -285 0
30 -374 -309 0
30 -374 -333 0
30 -374 -357 0
31 -278 -310 0
31 -278 -334 0
31 -278 -358 0
31 -278 -382 0
31 -302 -286 0
31 -302 -334 0
31 -302 -358 0
31 -302 -382 0
31 -326 -286 0
31 -326 -310 0
31 -326 -358 0
31 -326 -382 0
31 -350 -286 0
31 -350 -310 0
31 -350 -334 0
31 -350 -382 0
31 -374 -286 0
31 -374 -310 0
31 -374 -334 0
31 -374 -358 0
32 -278 -311 0
32 -278 -335 0
32 -278 -359 0
32 -278 -383 0
32 -302 -287 0
32 -302 -335 0
32 -302 -359 0
32 -302 -383 0
32 -326 -287 0
32 -326 -311 0
32 -326 -359 0
32 -326 -383 0
32 -350 -287 0
32 -350 -311 0
32 -350 -335 0
32 -350 -383 0
32 -374 -287 0
32 -374 -311 0
32 -374 -335 0
32 -374 -359 0
33 -278 -312 0
33 -278 -336 0
33 -278 -360 0
33 -278 -384 0
33 -302 -288 0
33 -302 -336 0
33 -302 -360 0
33 -302 -384 0
33 -326 -288 0
33 -326 -312 0
33 -326 -360 0
33 -326 -384 0
33 -350 -288 0
33 -350 -312 0
33 -350 -336 0
33 -350 -384 0
33 -374 -288 0
33 -374 -312 0
33 -374 -336 0
33 -374 -360 0
34 -278 -313 0
34 -278 -337 0
34 -278 -361 0
34 -278 -385 0
34 -302 -289 0
34 -302 -337 0
34 -302 -361 0
34 -302 -385 0
34 -326 -289 0
34 -326 -313 0
34 -326 -361 0
34 -326 -385 0
34 -350 -289 0
34 -350 -313 0
34 -350 -337 0
34 -350 -385 0
34 -374 -289 0
34 -374 -313 0
34 -374 -337 0
34 -374 -361 0
35 -278 -314 0
35 -278 -338 0
35 -278 -362 0
35 -278 -386 0
35 -302 -290 0
35 -302 -338 0
35 -302 -362 0
35 -302 -386 0
35 -326 -290 0
35 -326 -314 0
35 -326 -362 0
35 -326 -386 0
35 -350 -290 0
35 -350 -314 0
35 -350 -338 0
35 -350 -386 0
35 -374 -290 0
35 -374 -314 0
35 -374 -338 0
35 -374 -362 0
36 -278 -315 0
36 -278 -339 0
36 -278 -363 0
36 -278 -387 0
36 -302 -291 0
36 -302 -339 0
36 -302 -363 0
36 -302 -387 0
36 -326 -291 0
36 -326 -315 0
36 -326 -363 0
36 -326 -387 0
36 -350 -291 0
36 -350 -315 0
36 -350 -339 0
36 -350 -387 0
36 -374 -291 0
36 -374 -315 0
36 -374 -339 0
36 -374 -363 0
37 -278 -316 0
37 -278 -340 0
37 -278 -364 0
37 -278 -388 0
37 -302 -292 0
37 -302 -340 0
37 -302 -364 0
37 -302 -388 0
37 -326 -292 0
37 -326 -316 0
37 -326 -364 0
37 -326 -388 0
37 -350 -292 0
37 -350 -316 0
37 -350 -340 0
37 -350 -388 0
37 -374 -292 0
37 -374 -316 0
37 -374 -340 0
37 -374 -364 0
38 -278 -317 0
38 -278 -341 0
38 -278 -365 0
38 -278 -389 0
38 -302 -293 0
38 -302 -341 0
38 -302 -365 0
38 -302 -389 0
38 -326 -293 0
38 -326 -317 0
38 -326 -365 0
38 -326 -389 0
38 -350 -293 0
38 -350 -317 0
38 -350 -341 0
38 -350 -389 0
38 -374 -293 0
38 -374 -317 0
38 -374 -341 0
38 -374 -365 0
39 -278 -318 0
39 -278 -342 0
39 -278 -366 0
39 -278 -390 0
39 -302 -294 0
39 -302 -342 0
39 -302 -366 0
39 -302 -390 0
39 -326 -294 0
39 -326 -318 0
39 -326 -366 0
39 -326 -390 0
39 -350 -294 0
39 -350 -318 0
39 -350 -342 0
39 -350 -390 0
39 -374 -294 0
39 -374 -318 0
39 -374 -342 0
39 -374 -366 0
40 -278 -319 0
40 -278 -343 0
40 -278 -367 0
40 -278 -391 0
40 -302 -295 0
40 -302 -343 0
40 -302 -367 0
40 -302 -391 0
40 -326 -295 0
40 -326 -319 0
40 -326 -367 0
40 -326 -391 0
40 -350 -295 0
40 -350 -319 0
40 -350 -343 0
40 -350 -391 0
40 -374 -295 0
40 -374 -319 0
40 -374 -343 0
40 -374 -367 0
41 -278 -320 0
41 -278 -344 0
41 -278 -368 0
41 -278 -392 0
41 -302 -296 0
41 -302 -344 0
41 -302 -368 0
41 -302 -392 0
41 -326 -296 0
41 -326 -320 0
41 -326 -368 0
41 -326 -392 0
41 -350 -296 0
41 -350 -320 0
41 -350 -344 0
41 -350 -392 0
41 -374 -296 0
41 -374 -320 0
41 -374 -344 0
41 -374 -368 0
42 -278 -321 0
42 -278 -345 0
42 -278 -369 0
42 -278 -393 0
42 -302 -297 0
42 -302 -345 0
42 -302 -369 0
42 -302 -393 0
42 -326 -297 0
42 -326 -321 0
42 -326 -369 0
42 -326 -393 0
42 -350 -297 0
42 -350 -321 0
42 -350 -345 0
42 -350 -393 0
42 -374 -297 0
42 -374 -321 0
42 -374 -345 0
42 -374 -369 0
43 -278 -322 0
43 -278 -346 0
43 -278 -370 0
43 -278 -394 0
43 -302 -298 0
43 -302 -346 0
43 -302 -370 0
43 -302 -394 0
43 -326 -298 0
43 -326 -322 0
43 -326 -370 0
43 -326 -394 0
43 -350 -298 0
43 -350 -322 0
43 -350 -346 0
43 -350 -394 0
43 -374 -298 0
43 -374 -322 0
43 -374 -346 0
43 -374 -370 0
44 -278 -323 0
44 -278 -347 0
44 -278 -371 0
44 -278 -395 0
44 -302 -299 0
44 -302 -347 0
44 -302 -371 0
44 -302 -395 0
44 -326 -299 0
44 -326 -323 0
44 -326 -371 0
44 -326 -395 0
44 -350 -299 0
44 -350 -323 0
44 -350 -347 0
44 -350 -395 0
44 -374 -299 0
44 -374 -323 0
44 -374 -347 0
44 -374 -371 0
45 -278 -324 0
45 -278 -348 0
45 -278 -372 0
45 -278 -396 0
45 -302 -300 0
45 -302 -348 0
45 -302 -372 0
45 -302 -396 0
45 -326 -300 0
45 -326 -324 0
45 -326 -372 0
45 -326 -396 0
45 -350 -300 0
45 -350 -324 0
45 -350 -348 0
45 -350 -396 0
45 -374 -300 0
45 -374 -324 0
45 -374 -348 0
45 -374 -372 0
46 -279 -304 0
46 -279 -328 0
46 -279 -352 0
46 -279 -376 0
46 -303 -280 0
46 -303 -328 0
46 -303 -352 0
46 -303 -376 0
46 -327 -280 0
46 -327 -304 0
46 -327 -352 0
46 -327 -376 0
46 -351 -280 0
46 -351 -304 0
46 -351 -328 0
46 -351 -376 0
46 -375 -280 0
46 -375 -304 0
46 -375 -328 0
46 -375 -352 0
47 -279 -305 0
47 -279 -329 0
47 -279 -353 0
47 -279 -377 0
47 -303 -281 0
47 -303 -329 0
47 -303 -353 0
47 -303 -377 0
47 -327 -281 0
47 -327 -305 0
47 -327 -353 0
47 -327 -377 0
47 -351 -281 0
47 -351 -305 0
47 -351 -329 0
47 -351 -377 0
47 -375 -281 0
47 -375 -305 0
47 -375 -329 0
47 -375 -353 0
48 -279 -306 0
48 -279 -330 0
48 -279 -354 0
48 -279 -378 0
48 -303 -282 0
48 -303 -330 0
48 -303 -354 0
48 -303 -378 0
48 -327 -282 0
48 -327 -306 0
48 -327 -354 0
48 -327 -378 0
48 -351 -282 0
48 -351 -306 0
48 -351 -330 0
48 -351 -378 0
48 -375 -282 0
48 -375 -306 0
48 -375 -330 0
48 -375 -354 0
49 -279 -307 0
49 -279 -331 0
49 -279 -355 0
49 -279 -379 0
49 -303 -283 0
49 -303 -331 0
49 -303 -355 0
49 -303 -379 0
49 -327 -283 0
49 -327 -307 0
49 -327 -355 0
49 -327 -379 0
49 -351 -283 0
49 -351 -307 0
49 -351 -331 0
49 -351 -379 0
49 -375 -283 0
49 -375 -307 0
49 -375 -331 0
49 -375 -355 0
50 -279 -308 0
50 -279 -332 0
50 -279 -356 0
50 -279 -380 0
50 -303 -284 0
50 -303 -332 0
50 -303 -356 0
50 -303 -380 0
50 -327 -284 0
50 -327 -308 0
50 -327 -356 0
50 -327 -380 0
50 -351 -284 0
50 -351 -308 0
50 -351 -332 0
50 -351 -380 0
50 -375 -284 0
50 -375 -308 0
50 -375 -332 0
50 -375 -356 0
51 -279 -309 0
51 -279 -333 0
51 -279 -357 0
51 -279 -381 0
51 -303 -285 0
51 -303 -333 0
51 -303 -357 0
51 -303 -381 0
51 -327 -285 0
51 -327 -309 0
51 -327 -357 0
51 -327 -381 0
51 -351 -285 0
51 -351 -309 0
51 -351 -333 0
51 -351 -381 0
51 -375 -285 0
51 -375 -309 0
51 -375 -333 0
51 -375 -357 0
52 -279 -310 0
52 -279 -334 0
52 -279 -358 0
52 -279 -382 0
52 -303 -286 0
52 -303 -334 0
52 -303 -358 0
52 -303 -382 0
52 -327 -286 0
52 -327 -310 0
52 -327 -358 0
52 -327 -382 0
52 -351 -286 0
52 -351 -310 0
52 -351 -334 0
52 -351 -382 0
52 -375 -286 0
52 -375 -310 0
52 -375 -334 0
52 -375 -358 0
53 -279 -311 0
53 -279 -335 0
53 -279 -359 0
53 -279 -383 0
53 -303 -287 0
53 -303 -335 0
53 -303 -359 0
53 -303 -383 0
53 -327 -287 0
53 -327 -311 0
53 -327 -359 0
53 -327 -383 0
53 -351 -287 0
53 -351 -311 0
53 -351 -335 0
53 -351 -383 0
53 -375 -287 0
53 -375 -311 0
53 -375 -335 0
53 -375 -359 0
54 -279 -312 0
54 -279 -336 0
54 -279 -360 0
54 -279 -384 0
54 -303 -288 0
54 -303 -336 0
54 -303 -360 0
54 -303 -384 0
54 -327 -288 0
54 -327 -312 0
54 -327 -360 0
54 -327 -384 0
54 -351 -288 0
54 -351 -312 0
54 -351 -336 0
54 -351 -384 0
54 -375 -288 0
54 -375 -312 0
54 -375 -336 0
54 -375 -360 0
55 -279 -313 0
55 -279 -337 0
55 -279 -361 0
55 -279 -385 0
55 -303 -289 0
55 -303 -337 0
55 -303 -361 0
55 -303 -385 0
55 -327 -289 0
55 -327 -313 0
55 -327 -361 0
55 -327 -385 0
55 -351 -289 0
55 -351 -313 0
55 -351 -337 0
55 -351 -385 0
55 -375 -289 0
55 -375 -313 0
55 -375 -337 0
55 -375 -361 0
56 -279 -314 0
56 -279 -338 0
56 -279 -362 0
56 -279 -386 0
56 -303 -290 0
56 -303 -338 0
56 -303 -362 0
56 -303 -386 0
56 -327 -290 0
56 -327 -314 0
56 -327 -362 0
56 -327 -386 0
56 -351 -290 0
56 -351 -314 0
56 -351 -338 0
56 -351 -386 0
56 -375 -290 0
56 -375 -314 0
56 -375 -338 0
56 -375 -362 0
57 -279 -315 0
57 -279 -339 0
57 -279 -363 0
57 -279 -387 0
57 -303 -291 0
57 -303 -339 0
57 -303 -363 0
57 -303 -387 0
57 -327 -291 0
57 -327 -315 0
57 -327 -363 0
57 -327 -387 0
57 -351 -291 0
57 -351 -315 0
57 -351 -339 0
57 -351 -387 0
57 -375 -291 0
57 -375 -315 0
57 -375 -339 0
57 -375 -363 0
58 -279 -316 0
58 -279 -340 0
58 -279 -364 0
58 -279 -388 0
58 -303 -292 0
58 -303 -340 0
58 -303 -364 0
58 -303 -388 0
58 -327 -292 0
58 -327 -316 0
58 -327 -364 0
58 -327 -388 0
58 -351 -292 0
58 -351 -316 0
58 -351 -340 0
58 -351 -388 0
58 -375 -292 0
58 -375 -316 0
58 -375 -340 0
58 -375 -364 0
59 -279 -317 0
59 -279 -341 0
59 -279 -365 0
59 -279 -389 0
59 -303 -293 0
59 -303 -341 0
59 -303 -365 0
59 -303 -389 0
59 -327 -293 0
59 -327 -317 0
59 -327 -365 0
59 -327 -389 0
59 -351 -293 0
59 -351 -317 0
59 -351 -341 0
59 -351 -389 0
59 -375 -293 0
59 -375 -317 0
59 -375 -341 0
59 -375 -365 0
60 -279 -318 0
60 -279 -342 0
60 -279 -366 0
60 -279 -390 0
60 -303 -294 0
60 -303 -342 0
60 -303 -366 0
60 -303 -390 0
60 -327 -294 0
60 -327 -318 0
60 -327 -366 0
60 -327 -390 0
60 -351 -294 0
60 -351 -318 0
60 -351 -342 0
60 -351 -390 0
60 -375 -294 0
60 -375 -318 0
60 -375 -342 0
60 -375 -366 0
61 -279 -319 0
61 -279 -343 0
61 -279 -367 0
61 -279 -391 0
61 -303 -295 0
61 -303 -343 0
61 -303 -367 0
61 -303 -391 0
61 -327 -295 0
61 -327 -319 0
61 -327 -367 0
61 -327 -391 0
61 -351 -295 0
61 -351 -319 0
61 -351 -343 0
61 -351 -391 0
61 -375 -295 0
61 -375 -319 0
61 -375 -343 0
61 -375 -367 0
62 -279 -320 0
62 -279 -344 0
62 -279 -368 0
62 -279 -392 0
62 -303 -296 0
62 -303 -344 0
62 -303 -368 0
62 -303 -392 0
62 -327 -296 0
62 -327 -320 0
62 -327 -368 0
62 -327 -392 0
62 -351 -296 0
62 -351 -320 0
62 -351 -344 0
62 -351 -392 0
62 -375 -296 0
62 -375 -320 0
62 -375 -344 0
62 -375 -368 0
63 -279 -321 0
63 -279 -345 0
63 -279 -369 0
63 -279 -393 0
63 -303 -297 0
63 -303 -345 0
63 -303 -369 0
63 -303 -393 0
63 -327 -297 0
63 -327 -321 0
63 -327 -369 0
63 -327 -393 0
63 -351 -297 0
63 -351 -321 0
63 -351 -345 0
63 -351 -393 0
63 -375 -297 0
63 -375 -321 0
63 -375 -345 0
63 -375 -369 0
64 -279 -322 0
64 -279 -346 0
64 -279 -370 0
64 -279 -394 0
64 -303 -298 0
64 -303 -346 0
64 -303 -370 0
64 -303 -394 0
64 -327 -298 0
64 -327 -322 0
64 -327 -370 0
64 -327 -394 0
64 -351 -298 0
64 -351 -322 0
64 -351 -346 0
64 -351 -394 0
64 -375 -298 0
64 -375 -322 0
64 -375 -346 0
64 -375 -370 0
65 -279 -323 0
65 -279 -347 0
65 -279 -371 0
65 -279 -395 0
65 -303 -299 0
65 -303 -347 0
65 -303 -371 0
65 -303 -395 0
65 -327 -299 0
65 -327 -323 0
65 -327 -371 0
65 -327 -395 0
65 -351 -299 0
65 -351 -323 0
65 -351 -347 0
65 -351 -395 0
65 -375 -299 0
65 -375 -323 0
65 -375 -347 0
65 -375 -371 0
66 -279 -324 0
66 -279 -348 0
66 -279 -372 0
66 -279 -396 0
66 -303 -300 0
66 -303 -348 0
66 -303 -372 0
66 -303 -396 0
66 -327 -300 0
66 -327 -324 0
66 -327 -372 0
66 -327 -396 0
66 -351 -300 0
66 -351 -324 0
66 -351 -348 0
66 -351 -396 0
66 -375 -300 0
66 -375 -324 0
66 -375 -348 0
66 -375 -372 0
67 -280 -305 0
67 -280 -329 0
67 -280 -353 0
67 -280 -377 0
67 -304 -281 0
67 -304 -329 0
67 -304 -353 0
67 -304 -377 0
67 -328 -281 0
67 -328 -305 0
67 -328 -353 0
67 -328 -377 0
67 -352 -281 0
67 -352 -305 0
67 -352 -329 0
67 -352 -377 0
67 -376 -281 0
67 -376 -305 0
67 -376 -329 0
67 -376 -353 0
68 -280 -306 0
68 -280 -330 0
68 -280 -354 0
68 -280 -378 0
68 -304 -282 0
68 -304 -330 0
68 -304 -354 0
68 -304 -378 0
68 -328 -282 0
68 -328 -306 0
68 -328 -354 0
68 -328 -378 0
68 -352 -282 0
68 -352 -306 0
68 -352 -330 0
68 -352 -378 0
68 -376 -282 0
68 -376 -306 0
68 -376 -330 0
68 -376 -354 0
69 -280 -307 0
69 -280 -331 0
69 -280 -355 0
69 -280 -379 0
69 -304 -283 0
69 -304 -331 0
69 -304 -355 0
69 -304 -379 0
69 -328 -283 0
69 -328 -307 0
69 -328 -355 0
69 -328 -379 0
69 -352 -283 0
69 -352 -307 0
69 -352 -331 0
69 -352 -379 0
69 -376 -283 0
69 -376 -307 0
69 -376 -331 0
69 -376 -355 0
70 -280 -308 0
70 -280 -332 0
70 -280 -356 0
70 -280 -380 0
70 -304 -284 0
70 -304 -332 0
70 -304 -356 0
70 -304 -380 0
70 -328 -284 0
70 -328 -308 0
70 -328 -356 0
70 -328 -380 0
70 -352 -284 0
70 -352 -308 0
70 -352 -332 0
70 -352 -380 0
70 -376 -284 0
70 -376 -308 0
70 -376 -332 0
70 -376 -356 0
71 -280 -309 0
71 -280 -333 0
71 -280 -357 0
71 -280 -381 0
71 -304 -285 0
71 -304 -333 0
71 -304 -357 0
71 -304 -381 0
71 -328 -285 0
71 -328 -309 0
71 -328 -357 0
71 -328 -381 0
71 -352 -285 0
71 -352 -309 0
71 -352 -333 0
71 -352 -381 0
71 -376 -285 0
71 -376 -309 0
71 -376 -333 0
71 -376 -357 0
72 -280 -310 0
72 -280 -334 0
72 -280 -358 0
72 -280 -382 0
72 -304 -286 0
72 -304 -334 0
72 -304 -358 0
72 -304 -382 0
72 -328 -286 0
72 -328 -310 0
72 -328 -358 0
72 -328 -382 0
72 -352 -286 0
72 -352 -310 0
72 -352 -334 0
72 -352 -382 0
72 -376 -286 0
72 -376 -310 0
72 -376 -334 0
72 -376 -358 0
73 -280 -311 0
73 -280 -335 0
73 -280 -359 0
73 -280 -383 0
73 -304 -287 0
73 -304 -335 0
73 -304 -359 0
73 -304 -383 0
73 -328 -287 0
73 -328 -311 0
73 -328 -359 0
73 -328 -383 0
73 -352 -287 0
73 -352 -311 0
73 -352 -335 0
73 -352 -383 0
73 -376 -287 0
73 -376 -311 0
73 -376 -335 0
73 -376 -359 0
74 -280 -312 0
74 -280 -336 0
74 -280 -360 0
74 -280 -384 0
74 -304 -288 0
74 -304 -336 0
74 -304 -360 0
74 -304 -384 0
74 -328 -288 0
74 -328 -312 0
74 -328 -360 0
74 -328 -384 0
74 -352 -288 0
74 -352 -312 0
74 -352 -336 0
74 -352 -384 0
74 -376 -288 0
74 -376 -312 0
74 -376 -336 0
74 -376 -360 0
75 -280 -313 0
75 -280 -337 0
75 -280 -361 0
75 -280 -385 0
75 -304 -289 0
75 -304 -337 0
75 -304 -361 0
75 -304 -385 0
75 -328 -289 0
75 -328 -313 0
75 -328 -361 0
75 -328 -385 0
75 -352 -289 0
75 -352 -313 0
75 -352 -337 0
75 -352 -385 0
75 -376 -289 0
75 -376 -313 0
75 -376 -337 0
75 -376 -361 0
76 -280 -314 0
76 -280 -338 0
76 -280 -362 0
76 -280 -386 0
76 -304 -290 0
76 -304 -338 0
76 -304 -362 0
76 -304 -386 0
76 -328 -290 0
76 -328 -314 0
76 -328 -362 0
76 -328 -386 0
76 -352 -290 0
76 -352 -314 0
76 -352 -338 0
76 -352 -386 0
76 -376 -290 0
76 -376 -314 0
76 -376 -338 0
76 -376 -362 0
77 -280 -315 0
77 -280 -339 0
77 -280 -363 0
77 -280 -387 0
77 -304 -291 0
77 -304 -339 0
77 -304 -363 0
77 -304 -387 0
77 -328 -291 0
77 -328 -315 0
77 -328 -363 0
77 -328 -387 0
77 -352 -291 0
77 -352 -315 0
77 -352 -339 0
77 -352 -387 0
77 -376 -291 0
77 -376 -315 0
77 -376 -339 0
77 -376 -363 0
78 -280 -316 0
78 -280 -340 0
78 -280 -364 0
78 -280 -388 0
78 -304 -292 0
78 -304 -340 0
78 -304 -364 0
78 -304 -388 0
78 -328 -292 0
78 -328 -316 0
78 -328 -364 0
78 -328 -388 0
78 -352 -292 0
78 -352 -316 0
78 -352 -340 0
78 -352 -388 0
78 -376 -292 0
78 -376 -316 0
78 -376 -340 0
78 -376 -364 0
79 -280 -317 0
79 -280 -341 0
79 -280 -365 0
79 -280 -389 0
79 -304 -293 0
79 -304 -341 0
79 -304 -365 0
79 -304 -389 0
79 -328 -293 0
79 -328 -317 0
79 -328 -365 0
79 -328 -389 0
79 -352 -293 0
79 -352 -317 0
79 -352 -341 0
79 -352 -389 0
79 -376 -293 0
79 -376 -317 0
79 -376 -341 0
79 -376 -365 0
80 -280 -318 0
80 -280 -342 0
80 -280 -366 0
80 -280 -390 0
80 -304 -294 0
80 -304 -342 0
80 -304 -366 0
80 -304 -390 0
80 -328 -294 0
80 -328 -318 0
80 -328 -366 0
80 -328 -390 0
80 -352 -294 0
80 -352 -318 0
80 -352 -342 0
80 -352 -390 0
80 -376 -294 0
80 -376 -318 0
80 -376 -342 0
80 -376 -366 0
81 -280 -319 0
81 -280 -343 0
81 -280 -367 0
81 -280 -391 0
81 -304 -295 0
81 -304 -343 0
81 -304 -367 0
81 -304 -391 0
81 -328 -295 0
81 -328 -319 0
81 -328 -367 0
81 -328 -391 0
81 -352 -295 0
81 -352 -319 0
81 -352 -343 0
81 -352 -391 0
81 -376 -295 0
81 -376 -319 0
81 -376 -343 0
81 -376 -367 0
82 -280 -320 0
82 -280 -344 0
82 -280 -368 0
82 -280 -392 0
82 -304 -296 0
82 -304 -344 0
82 -304 -368 0
82 -304 -392 0
82 -328 -296 0
82 -328 -320 0
82 -328 -368 0
82 -328 -392 0
82 -352 -296 0
82 -352 -320 0
82 -352 -344 0
82 -352 -392 0
82 -376 -296 0
82 -376 -320 0
82 -376 -344 0
82 -376 -368 0
83 -280 -321 0
83 -280 -345 0
83 -280 -369 0
83 -280 -393 0
83 -304 -297 0
83 -304 -345 0
83 -304 -369 0
83 -304 -393 0
83 -328 -297 0
83 -328 -321 0
83 -328 -369 0
83 -328 -393 0
83 -352 -297 0
83 -352 -321 0
83 -352 -345 0
83 -352 -393 0
83 -376 -297 0
83 -376 -321 0
83 -376 -345 0
83 -376 -369 0
84 -280 -322 0
84 -280 -346 0
84 -280 -370 0
84 -280 -394 0
84 -304 -298 0
84 -304 -346 0
84 -304 -370 0
84 -304 -394 0
84 -328 -298 0
84 -328 -322 0
84 -328 -370 0
84 -328 -394 0
84 -352 -298 0
84 -352 -322 0
84 -352 -346 0
84 -352 -394 0
84 -376 -298 0
84 -376 -322 0
84 -376 -346 0
84 -376 -370 0
85 -280 -323 0
85 -280 -347 0
85 -280 -371 0
85 -280 -395 0
85 -304 -299 0
85 -304 -347 0
85 -304 -371 0
85 -304 -395 0
85 -328 -299 0
85 -328 -323 0
85 -328 -371 0
85 -328 -395 0
85 -352 -299 0
85 -352 -323 0
85 -352 -347 0
85 -352 -395 0
85 -376 -299 0
85 -376 -323 0
85 -376 -347 0
85 -376 -371 0
86 -280 -324 0
86 -280 -348 0
86 -280 -372 0
86 -280 -396 0
86 -304 -300 0
86 -304 -348 0
86 -304 -372 0
86 -304 -396 0
86 -328 -300 0
86 -328 -324 0
86 -328 -372 0
86 -328 -396 0
86 -352 -300 0
86 -352 -324 0
86 -352 -348 0
86 -352 -396 0
86 -376 -300 0
86 -376 -324 0
86 -376 -348 0
86 -376 -372 0
87 -281 -306 0
87 -281 -330 0
87 -281 -354 0
87 -281 -378 0
87 -305 -282 0
87 -305 -330 0
87 -305 -354 0
87 -305 -378 0
87 -329 -282 0
87 -329 -306 0
87 -329 -354 0
87 -329 -378 0
87 -353 -282 0
87 -353 -306 0
87 -353 -330 0
87 -353 -378 0
87 -377 -282 0
87 -377 -306 0
87 -377 -330 0
87 -377 -354 0
88 -281 -307 0
88 -281 -331 0
88 -281 -355 0
88 -281 -379 0
88 -305 -283 0
88 -305 -331 0
88 -305 -355 0
88 -305 -379 0
88 -329 -283 0
88 -329 -307 0
88 -329 -355 0
88 -329 -379 0
88 -353 -283 0
88 -353 -307 0
88 -353 -331 0
88 -353 -379 0
88 -377 -283 0
88 -377 -307 0
88 -377 -331 0
88 -377 -355 0
89 -281 -308 0
89 -281 -332 0
89 -281 -356 0
89 -281 -380 0
89 -305 -284 0
89 -305 -332 0
89 -305 -356 0
89 -305 -380 0
89 -329 -284 0
89 -329 -308 0
89 -329 -356 0
89 -329 -380 0
89 -353 -284 0
89 -353 -308 0
89 -353 -332 0
89 -353 -380 0
89 -377 -284 0
89 -377 -308 0
89 -377 -332 0
89 -377 -356 0
90 -281 -309 0
90 -281 -333 0
90 -281 -357 0
90 -281 -381 0
90 -305 -285 0
90 -305 -333 0
90 -305 -357 0
90 -305 -381 0
90 -329 -285 0
90 -329 -309 0
90 -329 -357 0
90 -329 -381 0
90 -353 -285 0
90 -353 -309 0
90 -353 -333 0
90 -353 -381 0
90 -377 -285 0
90 -377 -309 0
90 -377 -333 0
90 -377 -357 0
91 -281 -310 0
91 -281 -334 0
91 -281 -358 0
91 -281 -382 0
91 -305 -286 0
91 -305 -334 0
91 -305 -358 0
91 -305 -382 0
91 -329 -286 0
91 -329 -310 0
91 -329 -358 0
91 -329 -382 0
91 -353 -286 0
91 -353 -310 0
91 -353 -334 0
91 -353 -382 0
91 -377 -286 0
91 -377 -310 0
91 -377 -334 0
91 -377 -358 0
92 -281 -311 0
92 -281 -335 0
92 -281 -359 0
92 -281 -383 0
92 -305 -287 0
92 -305 -335 0
92 -305 -359 0
92 -305 -383 0
92 -329 -287 0
92 -329 -311 0
92 -329 -359 0
92 -329 -383 0
92 -353 -287 0
92 -353 -311 0
92 -353 -335 0
92 -353 -383 0
92 -377 -287 0
92 -377 -311 0
92 -377 -335 0
92 -377 -359 0
93 -281 -312 0
93 -281 -336 0
93 -281 -360 0
93 -281 -384 0
93 -305 -288 0
93 -305 -336 0
93 -305 -360 0
93 -305 -384 0
93 -329 -288 0
93 -329 -312 0
93 -329 -360 0
93 -329 -384 0
93 -353 -288 0
93 -353 -312 0
93 -353 -336 0
93 -353 -384 0
93 -377 -288 0
93 -377 -312 0
93 -377 -336 0
93 -377 -360 0
94 -281 -313 0
94 -281 -337 0
94 -281 -361 0
94 -281 -385 0
94 -305 -289 0
94 -305 -337 0
94 -305 -361 0
94 -305 -385 0
94 -329 -289 0
94 -329 -313 0
94 -329 -361 0
94 -329 -385 0
94 -353 -289 0
94 -353 -313 0
94 -353 -337 0
94 -353 -385 0
94 -377 -289 0
94 -377 -313 0
94 -377 -337 0
94 -377 -361 0
95 -281 -314 0
95 -281 -338 0
95 -281 -362 0
95 -281 -386 0
95 -305 -290 0
95 -305 -338 0
95 -305 -362 0
95 -305 -386 0
95 -329 -290 0
95 -329 -314 0
95 -329 -362 0
95 -329 -386 0
95 -353 -290 0
95 -353 -314 0
95 -353 -338 0
95 -353 -386 0
95 -377 -290 0
95 -377 -314 0
95 -377 -338 0
95 -377 -362 0
96 -281 -315 0
96 -281 -339 0
96 -281 -363 0
96 -281 -387 0
96 -305 -291 0
96 -305 -339 0
96 -305 -363 0
96 -305 -387 0
96 -329 -291 0
96 -329 -315 0
96 -329 -363 0
96 -329 -387 0
96 -353 -291 0
96 -353 -315 0
96 -353 -339 0
96 -353 -387 0
96 -377 -291 0
96 -377 -315 0
96 -377 -339 0
96 -377 -363 0
97 -281 -316 0
97 -281 -340 0
97 -281 -364 0
97 -281 -388 0
97 -305 -292 0
97 -305 -340 0
97 -305 -364 0
97 -305 -388 0
97 -329 -292 0
97 -329 -316 0
97 -329 -364 0
97 -329 -388 0
97 -353 -292 0
97 -353 -316 0
97 -353 -340 0
97 -353 -388 0
97 -377 -292 0
97 -377 -316 0
97 -377 -340 0
97 -377 -364 0
98 -281 -317 0
98 -281 -341 0
98 -281 -365 0
98 -281 -389 0
98 -305 -293 0
98 -305 -341 0
98 -305 -365 0
98 -305 -389 0
98 -329 -293 0
98 -329 -317 0
98 -329 -365 0
98 -329 -389 0
98 -353 -293 0
98 -353 -317 0
98 -353 -341 0
98 -353 -389 0
98 -377 -293 0
98 -377 -317 0
98 -377 -341 0
98 -377 -365 0
99 -281 -318 0
99 -281 -342 0
99 -281 -366 0
99 -281 -390 0
99 -305 -294 0
99 -305 -342 0
99 -305 -366 0
99 -305 -390 0
99 -329 -294 0
99 -329 -318 0
99 -329 -366 0
99 -329 -390 0
99 -353 -294 0
99 -353 -318 0
99 -353 -342 0
99 -353 -390 0
99 -377 -294 0
99 -377 -318 0
99 -377 -342 0
99 -377 -366 0
100 -281 -319 0
100 -281 -343 0
100 -281 -367 0
100 -281 -391 0
100 -305 -295 0
100 -305 -343 0
100 -305 -367 0
100 -305 -391 0
100 -329 -295 0
100 -329 -319 0
100 -329 -367 0
100 -329 -391 0
100 -353 -295 0
100 -353 -319 0
100 -353 -343 0
100 -353 -391 0
100 -377 -295 0
100 -377 -319 0
100 -377 -343 0
100 -377 -367 0
101 -281 -320 0
101 -281 -344 0
101 -281 -368 0
101 -281 -392 0
101 -305 -296 0
101 -305 -344 0
101 -305 -368 0
101 -305 -392 0
101 -329 -296 0
101 -329 -320 0
101 -329 -368 0
101 -329 -392 0
101 -353 -296 0
101 -353 -320 0
101 -353 -344 0
101 -353 -392 0
101 -377 -296 0
101 -377 -320 0
101 -377 -344 0
101 -377 -368 0
102 -281 -321 0
102 -281 -345 0
102 -281 -369 0
102 -281 -393 0
102 -305 -297 0
102 -305 -345 0
102 -305 -369 0
102 -305 -393 0
102 -329 -297 0
102 -329 -321 0
102 -329 -369 0
102 -329 -393 0
102 -353 -297 0
102 -353 -321 0
102 -353 -345 0
102 -353 -393 0
102 -377 -297 0
102 -377 -321 0
102 -377 -345 0
102 -377 -369 0
103 -281 -322 0
103 -281 -346 0
103 -281 -370 0
103 -281 -394 0
103 -305 -298 0
103 -305 -346 0
103 -305 -370 0
103 -305 -394 0
103 -329 -298 0
103 -329 -322 0
103 -329 -370 0
103 -329 -394 0
103 -353 -298 0
103 -353 -322 0
103 -353 -346 0
103 -353 -394 0
103 -377 -298 0
103 -377 -322 0
103 -377 -346 0
103 -377 -370 0
104 -281 -323 0
104 -281 -347 0
104 -281 -371 0
104 -281 -395 0
104 -305 -299 0
104 -305 -347 0
104 -305 -371 0
104 -305 -395 0
104 -329 -299 0
104 -329 -323 0
104 -329 -371 0
104 -329 -395 0
104 -353 -299 0
104 -353 -323 0
104 -353 -347 0
104 -353 -395 0
104 -377 -299 0
104 -377 -323 0
104 -377 -347 0
104 -377 -371 0
105 -281 -324 0
105 -281 -348 0
105 -281 -372 0
105 -281 -396 0
105 -305 -300 0
105 -305 -348 0
105 -305 -372 0
105 -305 -396 0
105 -329 -300 0
105 -329 -324 0
105 -329 -372 0
105 -329 -396 0
105 -353 -300 0
105 -353 -324 0
105 -353 -348 0
105 -353 -396 0
105 -377 -300 0
105 -377 -324 0
105 -377 -348 0
105 -377 -372 0
106 -282 -307 0
106 -282 -331 0
106 -282 -355 0
106 -282 -379 0
106 -306 -283 0
106 -306 -331 0
106 -306 -355 0
106 -306 -379 0
106 -330 -283 0
106 -330 -307 0
106 -330 -355 0
106 -330 -379 0
106 -354 -283 0
106 -354 -307 0
106 -354 -331 0
106 -354 -379 0
106 -378 -283 0
106 -378 -307 0
106 -378 -331 0
106 -378 -355 0
107 -282 -308 0
107 -282 -332 0
107 -282 -356 0
107 -282 -380 0
107 -306 -284 0
107 -306 -332 0
107 -306 -356 0
107 -306 -380 0
107 -330 -284 0
107 -330 -308 0
107 -330 -356 0
107 -330 -380 0
107 -354 -284 0
107 -354 -308 0
107 -354 -332 0
107 -354 -380 0
107 -378 -284 0
107 -378 -308 0
107 -378 -332 0
107 -378 -356 0
108 -282 -309 0
108 -282 -333 0
108 -282 -357 0
108 -282 -381 0
108 -306 -285 0
108 -306 -333 0
108 -306 -357 0
108 -306 -381 0
108 -330 -285 0
108 -330 -309 0
108 -330 -357 0
108 -330 -381 0
108 -354 -285 0
108 -354 -309 0
108 -354 -333 0
108 -354 -381 0
108 -378 -285 0
108 -378 -309 0
108 -378 -333 0
108 -378 -357 0
109 -282 -310 0
109 -282 -334 0
109 -282 -358 0
109 -282 -382 0
109 -306 -286 0
109 -306 -334 0
109 -306 -358 0
109 -306 -382 0
109 -330 -286 0
109 -330 -310 0
109 -330 -358 0
109 -330 -382 0
109 -354 -286 0
109 -354 -310 0
109 -354 -334 0
109 -354 -382 0
109 -378 -286 0
109 -378 -310 0
109 -378 -334 0
109 -378 -358 0
110 -282 -311 0
110 -282 -335 0
110 -282 -359 0
110 -282 -383 0
110 -306 -287 0
110 -306 -335 0
110 -306 -359 0
110 -306 -383 0
110 -330 -287 0
110 -330 -311 0
110 -330 -359 0
110 -330 -383 0
110 -354 -287 0
110 -354 -311 0
110 -354 -335 0
110 -354 -383 0
110 -378 -287 0
110 -378 -311 0
110 -378 -335 0
110 -378 -359 0
111 -282 -312 0
111 -282 -336 0
111 -282 -360 0
111 -282 -384 0
111 -306 -288 0
111 -306 -336 0
111 -306 -360 0
111 -306 -384 0
111 -330 -288 0
111 -330 -312 0
111 -330 -360 0
111 -330 -384 0
111 -354 -288 0
111 -354 -312 0
111 -354 -336 0
111 -354 -384 0
111 -378 -288 0
111 -378 -312 0
111 -378 -336 0
111 -378 -360 0
112 -282 -313 0
112 -282 -337 0
112 -282 -361 0
112 -282 -385 0
112 -306 -289 0
112 -306 -337 0
112 -306 -361 0
112 -306 -385 0
112 -330 -289 0
112 -330 -313 0
112 -330 -361 0
112 -330 -385 0
112 -354 -289 0
112 -354 -313 0
112 -354 -337 0
112 -354 -385 0
112 -378 -289 0
112 -378 -313 0
112 -378 -337 0
112 -378 -361 0
113 -282 -314 0
113 -282 -338 0
113 -282 -362 0
113 -282 -386 0
113 -306 -290 0
113 -306 -338 0
113 -306 -362 0
113 -306 -386 0
113 -330 -290 0
113 -330 -314 0
113 -330 -362 0
113 -330 -386 0
113 -354 -290 0
113 -354 -314 0
113 -354 -338 0
113 -354 -386 0
113 -378 -290 0
113 -378 -314 0
113 -378 -338 0
113 -378 -362 0
114 -282 -315 0
114 -282 -339 0
114 -282 -363 0
114 -282 -387 0
114 -306 -291 0
114 -306 -339 0
114 -306 -363 0
114 -306 -387 0
114 -330 -291 0
114 -330 -315 0
114 -330 -363 0
114 -330 -387 0
114 -354 -291 0
114 -354 -315 0
114 -354 -339 0
114 -354 -387 0
114 -378 -291 0
114 -378 -315 0
114 -378 -339 0
114 -378 -363 0
115 -282 -316 0
115 -282 -340 0
115 -282 -364 0
115 -282 -388 0
115 -306 -292 0
115 -306 -340 0
115 -306 -364 0
115 -306 -388 0
115 -330 -292 0
115 -330 -316 0
115 -330 -364 0
115 -330 -388 0
115 -354 -292 0
115 -354 -316 0
115 -354 -340 0
115 -354 -388 0
115 -378 -292 0
115 -378 -316 0
115 -378 -340 0
115 -378 -364 0
116 -282 -317 0
116 -282 -341 0
116 -282 -365 0
116 -282 -389 0
116 -306 -293 0
116 -306 -341 0
116 -306 -365 0
116 -306 -389 0
116 -330 -293 0
116 -330 -317 0
116 -330 -365 0
116 -330 -389 0
116 -354 -293 0
116 -354 -317 0
116 -354 -341 0
116 -354 -389 0
116 -378 -293 0
116 -378 -317 0
116 -378 -341 0
116 -378 -365 0
117 -282 -318 0
117 -282 -342 0
117 -282 -366 0
117 -282 -390 0
117 -306 -294 0
117 -306 -342 0
117 -306 -366 0
117 -306 -390 0
117 -330 -294 0
117 -330 -318 0
117 -330 -366 0
117 -330 -390 0
117 -354 -294 0
117 -354 -318 0
117 -354 -342 0
117 -354 -390 0
117 -378 -294 0
117 -378 -318 0
117 -378 -342 0
117 -378 -366 0
118 -282 -319 0
118 -282 -343 0
118 -282 -367 0
118 -282 -391 0
118 -306 -295 0
118 -306 -343 0
118 -306 -367 0
118 -306 -391 0
118 -330 -295 0
118 -330 -319 0
118 -330 -367 0
118 -330 -391 0
118 -354 -295 0
118 -354 -319 0
118 -354 -343 0
118 -354 -391 0
118 -378 -295 0
118 -378 -319 0
118 -378 -343 0
118 -378 -367 0
119 -282 -320 0
119 -282 -344 0
119 -282 -368 0
119 -282 -392 0
119 -306 -296 0
119 -306 -344 0
119 -306 -368 0
119 -306 -392 0
119 -330 -296 0
119 -330 -320 0
119 -330 -368 0
119 -330 -392 0
119 -354 -296 0
119 -354 -320 0
119 -354 -344 0
119 -354 -392 0
119 -378 -296 0
119 -378 -320 0
119 -378 -344 0
119 -378 -368 0
120 -282 -321 0
120 -282 -345 0
120 -282 -369 0
120 -282 -393 0
120 -306 -297 0
120 -306 -345 0
120 -306 -369 0
120 -306 -393 0
120 -330 -297 0
120 -330 -321 0
120 -330 -369 0
120 -330 -393 0
120 -354 -297 0
120 -354 -321 0
120 -354 -345 0
120 -354 -393 0
120 -378 -297 0
120 -378 -321 0
120 -378 -345 0
120 -378 -369 0
121 -282 -322 0
121 -282 -346 0
121 -282 -370 0
121 -282 -394 0
121 -306 -298 0
121 -306 -346 0
121 -306 -370 0
121 -306 -394 0
121 -330 -298 0
121 -330 -322 0
121 -330 -370 0
121 -330 -394 0
121 -354 -298 0
121 -354 -322 0
121 -354 -346 0
121 -354 -394 0
121 -378 -298 0
121 -378 -322 0
121 -378 -346 0
121 -378 -370 0
122 -282 -323 0
122 -282 -347 0
122 -282 -371 0
122 -282 -395 0
122 -306 -299 0
122 -306 -347 0
122 -306 -371 0
122 -306 -395 0
122 -330 -299 0
122 -330 -323 0
122 -330 -371 0
122 -330 -395 0
122 -354 -299 0
122 -354 -323 0
122 -354 -347 0
122 -354 -395 0
122 -378 -299 0
122 -378 -323 0
122 -378 -347 0
122 -378 -371 0
123 -282 -324 0
123 -282 -348 0
123 -282 -372 0
123 -282 -396 0
123 -306 -300 0
123 -306 -348 0
123 -306 -372 0
123 -306 -396 0
123 -330 -300 0
123 -330 -324 0
123 -330 -372 0
123 -330 -396 0
123 -354 -300 0
123 -354 -324 0
123 -354 -348 0
123 -354 -396 0
123 -378 -300 0
123 -378 -324 0
123 -378 -348 0
123 -378 -372 0
124 -283 -308 0
124 -283 -332 0
124 -283 -356 0
124 -283 -380 0
124 -307 -284 0
124 -307 -332 0
124 -307 -356 0
124 -307 -380 0
124 -331 -284 0
124 -331 -308 0
124 -331 -356 0
124 -331 -380 0
124 -355 -284 0
124 -355 -308 0
124 -355 -332 0
124 -355 -380 0
124 -379 -284 0
124 -379 -308 0
124 -379 -332 0
124 -379 -356 0
125 -283 -309 0
125 -283 -333 0
125 -283 -357 0
125 -283 -381 0
125 -307 -285 0
125 -307 -333 0
125 -307 -357 0
125 -307 -381 0
125 -331 -285 0
125 -331 -309 0
125 -331 -357 0
125 -331 -381 0
125 -355 -285 0
125 -355 -309 0
125 -355 -333 0
125 -355 -381 0
125 -379 -285 0
125 -379 -309 0
125 -379 -333 0
125 -379 -357 0
126 -283 -310 0
126 -283 -334 0
126 -283 -358 0
126 -283 -382 0
126 -307 -286 0
126 -307 -334 0
126 -307 -358 0
126 -307 -382 0
126 -331 -286 0
126 -331 -310 0
126 -331 -358 0
126 -331 -382 0
126 -355 -286 0
126 -355 -310 0
126 -355 -334 0
126 -355 -382 0
126 -379 -286 0
126 -379 -310 0
126 -379 -334 0
126 -379 -358 0
127 -283 -311 0
127 -283 -335 0
127 -283 -359 0
127 -283 -383 0
127 -307 -287 0
127 -307 -335 0
127 -307 -359 0
127 -307 -383 0
127 -331 -287 0
127 -331 -311 0
127 -331 -359 0
127 -331 -383 0
127 -355 -287 0
127 -355 -311 0
127 -355 -335 0
127 -355 -383 0
127 -379 -287 0
127 -379 -311 0
127 -379 -335 0
127 -379 -359 0
128 -283 -312 0
128 -283 -336 0
128 -283 -360 0
128 -283 -384 0
128 -307 -288 0
128 -307 -336 0
128 -307 -360 0
128 -307 -384 0
128 -331 -288 0
128 -331 -312 0
128 -331 -360 0
128 -331 -384 0
128 -355 -288 0
128 -355 -312 0
128 -355 -336 0
128 -355 -384 0
128 -379 -288 0
128 -379 -312 0
128 -379 -336 0
128 -379 -360 0
129 -283 -313 0
129 -283 -337 0
129 -283 -361 0
129 -283 -385 0
129 -307 -289 0
129 -307 -337 0
129 -307 -361 0
129 -307 -385 0
129 -331 -289 0
129 -331 -313 0
129 -331 -361 0
129 -331 -385 0
129 -355 -289 0
129 -355 -313 0
129 -355 -337 0
129 -355 -385 0
129 -379 -289 0
129 -379 -313 0
129 -379 -337 0
129 -379 -361 0
130 -283 -314 0
130 -283 -338 0
130 -283 -362 0
130 -283 -386 0
130 -307 -290 0
130 -307 -338 0
130 -307 -362 0
130 -307 -386 0
130 -331 -290 0
130 -331 -314 0
130 -331 -362 0
130 -331 -386 0
130 -355 -290 0
130 -355 -314 0
130 -355 -338 0
130 -355 -386 0
130 -379 -290 0
130 -379 -314 0
130 -379 -338 0
130 -379 -362 0
131 -283 -315 0
131 -283 -339 0
131 -283 -363 0
131 -283 -387 0
131 -307 -291 0
131 -307 -339 0
131 -307 -363 0
131 -307 -387 0
131 -331 -291 0
131 -331 -315 0
131 -331 -363 0
131 -331 -387 0
131 -355 -291 0
131 -355 -315 0
131 -355 -339 0
131 -355 -387 0
131 -379 -291 0
131 -379 -315 0
131 -379 -339 0
131 -379 -363 0
132 -283 -316 0
132 -283 -340 0
132 -283 -364 0
132 -283 -388 0
132 -307 -292 0
132 -307 -340 0
132 -307 -364 0
132 -307 -388 0
132 -331 -292 0
132 -331 -316 0
132 -331 -364 0
132 -331 -388 0
132 -355 -292 0
132 -355 -316 0
132 -355 -340 0
132 -355 -388 0
132 -379 -292 0
132 -379 -316 0
132 -379 -340 0
132 -379 -364 0
133 -283 -317 0
133 -283 -341 0
133 -283 -365 0
133 -283 -389 0
133 -307 -293 0
133 -307 -341 0
133 -307 -365 0
133 -307 -389 0
133 -331 -293 0
133 -331 -317 0
133 -331 -365 0
133 -331 -389 0
133 -355 -293 0
133 -355 -317 0
133 -355 -341 0
133 -355 -389 0
133 -379 -293 0
133 -379 -317 0
133 -379 -341 0
133 -379 -365 0
134 -283 -318 0
134 -283 -342 0
134 -283 -366 0
134 -283 -390 0
134 -307 -294 0
134 -307 -342 0
134 -307 -366 0
134 -307 -390 0
134 -331 -294 0
134 -331 -318 0
134 -331 -366 0
134 -331 -390 0
134 -355 -294 0
134 -355 -318 0
134 -355 -342 0
134 -355 -390 0
134 -379 -294 0
134 -379 -318 0
134 -379 -342 0
134 -379 -366 0
135 -283 -319 0
135 -283 -343 0
135 -283 -367 0
135 -283 -391 0
135 -307 -295 0
135 -307 -343 0
135 -307 -367 0
135 -307 -391 0
135 -331 -295 0
135 -331 -319 0
135 -331 -367 0
135 -331 -391 0
135 -355 -295 0
135 -355 -319 0
135 -355 -343 0
135 -355 -391 0
135 -379 -295 0
135 -379 -319 0
135 -379 -343 0
135 -379 -367 0
136 -283 -320 0
136 -283 -344 0
136 -283 -368 0
136 -283 -392 0
136 -307 -296 0
136 -307 -344 0
136 -307 -368 0
136 -307 -392 0
136 -331 -296 0
136 -331 -320 0
136 -331 -368 0
136 -331 -392 0
136 -355 -296 0
136 -355 -320 0
136 -355 -344 0
136 -355 -392 0
136 -379 -296 0
136 -379 -320 0
136 -379 -344 0
136 -379 -368 0
137 -283 -321 0
137 -283 -345 0
137 -283 -369 0
137 -283 -393 0
137 -307 -297 0
137 -307 -345 0
137 -307 -369 0
137 -307 -393 0
137 -331 -297 0
137 -331 -321 0
137 -331 -369 0
137 -331 -393 0
137 -355 -297 0
137 -355 -321 0
137 -355 -345 0
137 -355 -393 0
137 -379 -297 0
137 -379 -321 0
137 -379 -345 0
137 -379 -369 0
138 -283 -322 0
138 -283 -346 0
138 -283 -370 0
138 -283 -394 0
138 -307 -298 0
138 -307 -346 0
138 -307 -370 0
138 -307 -394 0
138 -331 -298 0
138 -331 -322 0
138 -331 -370 0
138 -331 -394 0
138 -355 -298 0
138 -355 -322 0
138 -355 -346 0
138 -355 -394 0
138 -379 -298 0
138 -379 -322 0
138 -379 -346 0
138 -379 -370 0
139 -283 -323 0
139 -283 -347 0
139 -283 -371 0
139 -283 -395 0
139 -307 -299 0
139 -307 -347 0
139 -307 -371 0
139 -307 -395 0
139 -331 -299 0
139 -331 -323 0
139 -331 -371 0
139 -331 -395 0
139 -355 -299 0
139 -355 -323 0
139 -355 -347 0
139 -355 -395 0
139 -379 -299 0
139 -379 -323 0
139 -379 -347 0
139 -379 -371 0
140 -283 -324 0
140 -283 -348 0
140 -283 -372 0
140 -283 -396 0
140 -307 -300 0
140 -307 -348 0
140 -307 -372 0
140 -307 -396 0
140 -331 -300 0
140 -331 -324 0
140 -331 -372 0
140 -331 -396 0
140 -355 -300 0
140 -355 -324 0
140 -355 -348 0
140 -355 -396 0
140 -379 -300 0
140 -379 -324 0
140 -379 -348 0
140 -379 -372 0
141 -284 -309 0
141 -284 -333 0
141 -284 -357 0
141 -284 -381 0
141 -308 -285 0
141 -308 -333 0
141 -308 -357 0
141 -308 -381 0
141 -332 -285 0
141 -332 -309 0
141 -332 -357 0
141 -332 -381 0
141 -356 -285 0
141 -356 -309 0
141 -356 -333 0
141 -356 -381 0
141 -380 -285 0
141 -380 -309 0
141 -380 -333 0
141 -380 -357 0
142 -284 -310 0
142 -284 -334 0
142 -284 -358 0
142 -284 -382 0
142 -308 -286 0
142 -308 -334 0
142 -308 -358 0
142 -308 -382 0
142 -332 -286 0
142 -332 -310 0
142 -332 -358 0
142 -332 -382 0
142 -356 -286 0
142 -356 -310 0
142 -356 -334 0
142 -356 -382 0
142 -380 -286 0
142 -380 -310 0
142 -380 -334 0
142 -380 -358 0
143 -284 -311 0
143 -284 -335 0
143 -284 -359 0
143 -284 -383 0
143 -308 -287 0
143 -308 -335 0
143 -308 -359 0
143 -308 -383 0
143 -332 -287 0
143 -332 -311 0
143 -332 -359 0
143 -332 -383 0
143 -356 -287 0
143 -356 -311 0
143 -356 -335 0
143 -356 -383 0
143 -380 -287 0
143 -380 -311 0
143 -380 -335 0
143 -380 -359 0
144 -284 -312 0
144 -284 -336 0
144 -284 -360 0
144 -284 -384 0
144 -308 -288 0
144 -308 -336 0
144 -308 -360 0
144 -308 -384 0
144 -332 -288 0
144 -332 -312 0
144 -332 -360 0
144 -332 -384 0
144 -356 -288 0
144 -356 -312 0
144 -356 -336 0
144 -356 -384 0
144 -380 -288 0
144 -380 -312 0
144 -380 -336 0
144 -380 -360 0
145 -284 -313 0
145 -284 -337 0
145 -284 -361 0
145 -284 -385 0
145 -308 -289 0
145 -308 -337 0
145 -308 -361 0
145 -308 -385 0
145 -332 -289 0
145 -332 -313 0
145 -332 -361 0
145 -332 -385 0
145 -356 -289 0
145 -356 -313 0
145 -356 -337 0
145 -356 -385 0
145 -380 -289 0
145 -380 -313 0
145 -380 -337 0
145 -380 -361 0
146 -284 -314 0
146 -284 -338 0
146 -284 -362 0
146 -284 -386 0
146 -308 -290 0
146 -308 -338 0
146 -308 -362 0
146 -308 -386 0
146 -332 -290 0
146 -332 -314 0
146 -332 -362 0
146 -332 -386 0
146 -356 -290 0
146 -356 -314 0
146 -356 -338 0
146 -356 -386 0
146 -380 -290 0
146 -380 -314 0
146 -380 -338 0
146 -380 -362 0
147 -284 -315 0
147 -284 -339 0
147 -284 -363 0
147 -284 -387 0
147 -308 -291 0
147 -308 -339 0
147 -308 -363 0
147 -308 -387 0
147 -332 -291 0
147 -332 -315 0
147 -332 -363 0
147 -332 -387 0
147 -356 -291 0
147 -356 -315 0
147 -356 -339 0
147 -356 -387 0
147 -380 -291 0
147 -380 -315 0
147 -380 -339 0
147 -380 -363 0
148 -284 -316 0
148 -284 -340 0
148 -284 -364 0
148 -284 -388 0
148 -308 -292 0
148 -308 -340 0
148 -308 -364 0
148 -308 -388 0
148 -332 -292 0
148 -332 -316 0
148 -332 -364 0
148 -332 -388 0
148 -356 -292 0
148 -356 -316 0
148 -356 -340 0
148 -356 -388 0
148 -380 -292 0
148 -380 -316 0
148 -380 -340 0
148 -380 -364 0
149 -284 -317 0
149 -284 -341 0
149 -284 -365 0
149 -284 -389 0
149 -308 -293 0
149 -308 -341 0
149 -308 -365 0
149 -308 -389 0
149 -332 -293 0
149 -332 -317 0
149 -332 -365 0
149 -332 -389 0
149 -356 -293 0
149 -356 -317 0
149 -356 -341 0
149 -356 -389 0
149 -380 -293 0
149 -380 -317 0
149 -380 -341 0
149 -380 -365 0
150 -284 -318 0
150 -284 -342 0
150 -284 -366 0
150 -284 -390 0
150 -308 -294 0
150 -308 -342 0
150 -308 -366 0
150 -308 -390 0
150 -332 -294 0
150 -332 -318 0
150 -332 -366 0
150 -332 -390 0
150 -356 -294 0
150 -356 -318 0
150 -356 -342 0
150 -356 -390 0
150 -380 -294 0
150 -380 -318 0
150 -380 -342 0
150 -380 -366 0
151 -284 -319 0
151 -284 -343 0
151 -284 -367 0
151 -284 -391 0
151 -308 -295 0
151 -308 -343 0
151 -308 -367 0
151 -308 -391 0
151 -332 -295 0
151 -332 -319 0
151 -332 -367 0
151 -332 -391 0
151 -356 -295 0
151 -356 -319 0
151 -356 -343 0
151 -356 -391 0
151 -380 -295 0
151 -380 -319 0
151 -380 -343 0
151 -380 -367 0
152 -284 -320 0
152 -284 -344 0
152 -284 -368 0
152 -284 -392 0
152 -308 -296 0
152 -308 -344 0
152 -308 -368 0
152 -308 -392 0
152 -332 -296 0
152 -332 -320 0
152 -332 -368 0
152 -332 -392 0
152 -356 -296 0
152 -356 -320 0
152 -356 -344 0
152 -356 -392 0
152 -380 -296 0
152 -380 -320 0
152 -380 -344 0
152 -380 -368 0
153 -284 -321 0
153 -284 -345 0
153 -284 -369 0
153 -284 -393 0
153 -308 -297 0
153 -308 -345 0
153 -308 -369 0
153 -308 -393 0
153 -332 -297 0
153 -332 -321 0
153 -332 -369 0
153 -332 -393 0
153 -356 -297 0
153 -356 -321 0
153 -356 -345 0
153 -356 -393 0
153 -380 -297 0
153 -380 -321 0
153 -380 -345 0
153 -380 -369 0
154 -284 -322 0
154 -284 -346 0
154 -284 -370 0
154 -284 -394 0
154 -308 -298 0
154 -308 -346 0
154 -308 -370 0
154 -308 -394 0
154 -332 -298 0
154 -332 -322 0
154 -332 -370 0
154 -332 -394 0
154 -356 -298 0
154 -356 -322 0
154 -356 -346 0
154 -356 -394 0
154 -380 -298 0
154 -380 -322 0
154 -380 -346 0
154 -380 -370 0
155 -284 -323 0
155 -284 -347 0
155 -284 -371 0
155 -284 -395 0
155 -308 -299 0
155 -308 -347 0
155 -308 -371 0
155 -308 -395 0
155 -332 -299 0
155 -332 -323 0
155 -332 -371 0
155 -332 -395 0
155 -356 -299 0
155 -356 -323 0
155 -356 -347 0
155 -356 -395 0
155 -380 -299 0
155 -380 -323 0
155 -380 -347 0
155 -380 -371 0
156 -284 -324 0
156 -284 -348 0
156 -284 -372 0
156 -284 -396 0
156 -308 -300 0
156 -308 -348 0
156 -308 -372 0
156 -308 -396 0
156 -332 -300 0
156 -332 -324 0
156 -332 -372 0
156 -332 -396 0
156 -356 -300 0
156 -356 -324 0
156 -356 -348 0
156 -356 -396 0
156 -380 -300 0
156 -380 -324 0
156 -380 -348 0
156 -380 -372 0
157 -285 -310 0
157 -285 -334 0
157 -285 -358 0
157 -285 -382 0
157 -309 -286 0
157 -309 -334 0
157 -309 -358 0
157 -309 -382 0
157 -333 -286 0
157 -333 -310 0
157 -333 -358 0
157 -333 -382 0
157 -357 -286 0
157 -357 -310 0
157 -357 -334 0
157 -357 -382 0
157 -381 -286 0
157 -381 -310 0
157 -381 -334 0
157 -381 -358 0
158 -285 -311 0
158 -285 -335 0
158 -285 -359 0
158 -285 -383 0
158 -309 -287 0
158 -309 -335 0
158 -309 -359 0
158 -309 -383 0
158 -333 -287 0
158 -333 -311 0
158 -333 -359 0
158 -333 -383 0
158 -357 -287 0
158 -357 -311 0
158 -357 -335 0
158 -357 -383 0
158 -381 -287 0
158 -381 -311 0
158 -381 -335 0
158 -381 -359 0
159 -285 -312 0
159 -285 -336 0
159 -285 -360 0
159 -285 -384 0
159 -309 -288 0
159 -309 -336 0
159 -309 -360 0
159 -309 -384 0
159 -333 -288 0
159 -333 -312 0
159 -333 -360 0
159 -333 -384 0
159 -357 -288 0
159 -357 -312 0
159 -357 -336 0
159 -357 -384 0
159 -381 -288 0
159 -381 -312 0
159 -381 -336 0
159 -381 -360 0
160 -285 -313 0
160 -285 -337 0
160 -285 -361 0
160 -285 -385 0
160 -309 -289 0
160 -309 -337 0
160 -309 -361 0
160 -309 -385 0
160 -333 -289 0
160 -333 -313 0
160 -333 -361 0
160 -333 -385 0
160 -357 -289 0
160 -357 -313 0
160 -357 -337 0
160 -357 -385 0
160 -381 -289 0
160 -381 -313 0
160 -381 -337 0
160 -381 -361 0
161 -285 -314 0
161 -285 -338 0
161 -285 -362 0
161 -285 -386 0
161 -309 -290 0
161 -309 -338 0
161 -309 -362 0
161 -309 -386 0
161 -333 -290 0
161 -333 -314 0
161 -333 -362 0
161 -333 -386 0
161 -357 -290 0
161 -357 -314 0
161 -357 -338 0
161 -357 -386 0
161 -381 -290 0
161 -381 -314 0
161 -381 -338 0
161 -381 -362 0
162 -285 -315 0
162 -285 -339 0
162 -285 -363 0
162 -285 -387 0
162 -309 -291 0
162 -309 -339 0
162 -309 -363 0
162 -309 -387 0
162 -333 -291 0
162 -333 -315 0
162 -333 -363 0
162 -333 -387 0
162 -357 -291 0
162 -357 -315 0
162 -357 -339 0
162 -357 -387 0
162 -381 -291 0
162 -381 -315 0
162 -381 -339 0
162 -381 -363 0
163 -285 -316 0
163 -285 -340 0
163 -285 -364 0
163 -285 -388 0
163 -309 -292 0
163 -309 -340 0
163 -309 -364 0
163 -309 -388 0
163 -333 -292 0
163 -333 -316 0
163 -333 -364 0
163 -333 -388 0
163 -357 -292 0
163 -357 -316 0
163 -357 -340 0
163 -357 -388 0
163 -381 -292 0
163 -381 -316 0
163 -381 -340 0
163 -381 -364 0
164 -285 -317 0
164 -285 -341 0
164 -285 -365 0
164 -285 -389 0
164 -309 -293 0
164 -309 -341 0
164 -309 -365 0
164 -309 -389 0
164 -333 -293 0
164 -333 -317 0
164 -333 -365 0
164 -333 -389 0
164 -357 -293 0
164 -357 -317 0
164 -357 -341 0
164 -357 -389 0
164 -381 -293 0
164 -381 -317 0
164 -381 -341 0
164 -381 -365 0
165 -285 -318 0
165 -285 -342 0
165 -285 -366 0
165 -285 -390 0
165 -309 -294 0
165 -309 -342 0
165 -309 -366 0
165 -309 -390 0
165 -333 -294 0
165 -333 -318 0
165 -333 -366 0
165 -333 -390 0
165 -357 -294 0
165 -357 -318 0
165 -357 -342 0
165 -357 -390 0
165 -381 -294 0
165 -381 -318 0
165 -381 -342 0
165 -381 -366 0
166 -285 -319 0
166 -285 -343 0
166 -285 -367 0
166 -285 -391 0
166 -309 -295 0
166 -309 -343 0
166 -309 -367 0
166 -309 -391 0
166 -333 -295 0
166 -333 -319 0
166 -333 -367 0
166 -333 -391 0
166 -357 -295 0
166 -357 -319 0
166 -357 -343 0
166 -357 -391 0
166 -381 -295 0
166 -381 -319 0
166 -381 -343 0
166 -381 -367 0
167 -285 -320 0
167 -285 -344 0
167 -285 -368 0
167 -285 -392 0
167 -309 -296 0
167 -309 -344 0
167 -309 -368 0
167 -309 -392 0
167 -333 -296 0
167 -333 -320 0
167 -333 -368 0
167 -333 -392 0
167 -357 -296 0
167 -357 -320 0
167 -357 -344 0
167 -357 -392 0
167 -381 -296 0
167 -381 -320 0
167 -381 -344 0
167 -381 -368 0
168 -285 -321 0
168 -285 -345 0
168 -285 -369 0
168 -285 -393 0
168 -309 -297 0
168 -309 -345 0
168 -309 -369 0
168 -309 -393 0
168 -333 -297 0
168 -333 -321 0
168 -333 -369 0
168 -333 -393 0
168 -357 -297 0
168 -357 -321 0
168 -357 -345 0
168 -357 -393 0
168 -381 -297 0
168 -381 -321 0
168 -381 -345 0
168 -381 -369 0
169 -285 -322 0
169 -285 -346 0
169 -285 -370 0
169 -285 -394 0
169 -309 -298 0
169 -309 -346 0
169 -309 -370 0
169 -309 -394 0
169 -333 -298 0
169 -333 -322 0
169 -333 -370 0
169 -333 -394 0
169 -357 -298 0
169 -357 -322 0
169 -357 -346 0
169 -357 -394 0
169 -381 -298 0
169 -381 -322 0
169 -381 -346 0
169 -381 -370 0
170 -285 -323 0
170 -285 -347 0
170 -285 -371 0
170 -285 -395 0
170 -309 -299 0
170 -309 -347 0
170 -309 -371 0
170 -309 -395 0
170 -333 -299 0
170 -333 -323 0
170 -333 -371 0
170 -333 -395 0
170 -357 -299 0
170 -357 -323 0
170 -357 -347 0
170 -357 -395 0
170 -381 -299 0
170 -381 -323 0
170 -381 -347 0
170 -381 -371 0
171 -285 -324 0
171 -285 -348 0
171 -285 -372 0
171 -285 -396 0
171 -309 -300 0
171 -309 -348 0
171 -309 -372 0
171 -309 -396 0
171 -333 -300 0
171 -333 -324 0
171 -333 -372 0
171 -333 -396 0
171 -357 -300 0
171 -357 -324 0
171 -357 -348 0
171 -357 -396 0
171 -381 -300 0
171 -381 -324 0
171 -381 -348 0
171 -381 -372 0
172 -286 -311 0
172 -286 -335 0
172 -286 -359 0
172 -286 -383 0
172 -310 -287 0
172 -310 -335 0
172 -310 -359 0
172 -310 -383 0
172 -334 -287 0
172 -334 -311 0
172 -334 -359 0
172 -334 -383 0
172 -358 -287 0
172 -358 -311 0
172 -358 -335 0
172 -358 -383 0
172 -382 -287 0
172 -382 -311 0
172 -382 -335 0
172 -382 -359 0
173 -286 -312 0
173 -286 -336 0
173 -286 -360 0
173 -286 -384 0
173 -310 -288 0
173 -310 -336 0
173 -310 -360 0
173 -310 -384 0
173 -334 -288 0
173 -334 -312 0
173 -334 -360 0
173 -334 -384 0
173 -358 -288 0
173 -358 -312 0
173 -358 -336 0
173 -358 -384 0
173 -382 -288 0
173 -382 -312 0
173 -382 -336 0
173 -382 -360 0
174 -286 -313 0
174 -286 -337 0
174 -286 -361 0
174 -286 -385 0
174 -310 -289 0
174 -310 -337 0
174 -310 -361 0
174 -310 -385 0
174 -334 -289 0
174 -334 -313 0
174 -334 -361 0
174 -334 -385 0
174 -358 -289 0
174 -358 -313 0
174 -358 -337 0
174 -358 -385 0
174 -382 -289 0
174 -382 -313 0
174 -382 -337 0
174 -382 -361 0
175 -286 -314 0
175 -286 -338 0
175 -286 -362 0
175 -286 -386 0
175 -310 -290 0
175 -310 -338 0
175 -310 -362 0
175 -310 -386 0
175 -334 -290 0
175 -334 -314 0
175 -334 -362 0
175 -334 -386 0
175 -358 -290 0
175 -358 -314 0
175 -358 -338 0
175 -358 -386 0
175 -382 -290 0
175 -382 -314 0
175 -382 -338 0
175 -382 -362 0
176 -286 -315 0
176 -286 -339 0
176 -286 -363 0
176 -286 -387 0
176 -310 -291 0
176 -310 -339 0
176 -310 -363 0
176 -310 -387 0
176 -334 -291 0
176 -334 -315 0
176 -334 -363 0
176 -334 -387 0
176 -358 -291 0
176 -358 -315 0
176 -358 -339 0
176 -358 -387 0
176 -382 -291 0
176 -382 -315 0
176 -382 -339 0
176 -382 -363 0
177 -286 -316 0
177 -286 -340 0
177 -286 -364 0
177 -286 -388 0
177 -310 -292 0
177 -310 -340 0
177 -310 -364 0
177 -310 -388 0
177 -334 -292 0
177 -334 -316 0
177 -334 -364 0
177 -334 -388 0
177 -358 -292 0
177 -358 -316 0
177 -358 -340 0
177 -358 -388 0
177 -382 -292 0
177 -382 -316 0
177 -382 -340 0
177 -382 -364 0
178 -286 -317 0
178 -286 -341 0
178 -286 -365 0
178 -286 -389 0
178 -310 -293 0
178 -310 -341 0
178 -310 -365 0
178 -310 -389 0
178 -334 -293 0
178 -334 -317 0
178 -334 -365 0
178 -334 -389 0
178 -358 -293 0
178 -358 -317 0
178 -358 -341 0
178 -358 -389 0
178 -382 -293 0
178 -382 -317 0
178 -382 -341 0
178 -382 -365 0
179 -286 -318 0
179 -286 -342 0
179 -286 -366 0
179 -286 -390 0
179 -310 -294 0
179 -310 -342 0
179 -310 -366 0
179 -310 -390 0
179 -334 -294 0
179 -334 -318 0
179 -334 -366 0
179 -334 -390 0
179 -358 -294 0
179 -358 -318 0
179 -358 -342 0
179 -358 -390 0
179 -382 -294 0
179 -382 -318 0
179 -382 -342 0
179 -382 -366 0
180 -286 -319 0
180 -286 -343 0
180 -286 -367 0
180 -286 -391 0
180 -310 -295 0
180 -310 -343 0
180 -310 -367 0
180 -310 -391 0
180 -334 -295 0
180 -334 -319 0
180 -334 -367 0
180 -334 -391 0
180 -358 -295 0
180 -358 -319 0
180 -358 -343 0
180 -358 -391 0
180 -382 -295 0
180 -382 -319 0
180 -382 -343 0
180 -382 -367 0
181 -286 -320 0
181 -286 -344 0
181 -286 -368 0
181 -286 -392 0
181 -310 -296 0
181 -310 -344 0
181 -310 -368 0
181 -310 -392 0
181 -334 -296 0
181 -334 -320 0
181 -334 -368 0
181 -334 -392 0
181 -358 -296 0
181 -358 -320 0
181 -358 -344 0
181 -358 -392 0
181 -382 -296 0
181 -382 -320 0
181 -382 -344 0
181 -382 -368 0
182 -286 -321 0
182 -286 -345 0
182 -286 -369 0
182 -286 -393 0
182 -310 -297 0
182 -310 -345 0
182 -310 -369 0
182 -310 -393 0
182 -334 -297 0
182 -334 -321 0
182 -334 -369 0
182 -334 -393 0
182 -358 -297 0
182 -358 -321 0
182 -358 -345 0
182 -358 -393 0
182 -382 -297 0
182 -382 -321 0
182 -382 -345 0
182 -382 -369 0
183 -286 -322 0
183 -286 -346 0
183 -286 -370 0
183 -286 -394 0
183 -310 -298 0
183 -310 -346 0
183 -310 -370 0
183 -310 -394 0
183 -334 -298 0
183 -334 -322 0
183 -334 -370 0
183 -334 -394 0
183 -358 -298 0
183 -358 -322 0
183 -358 -346 0
183 -358 -394 0
183 -382 -298 0
183 -382 -322 0
183 -382 -346 0
183 -382 -370 0
184 -286 -323 0
184 -286 -347 0
184 -286 -371 0
184 -286 -395 0
184 -310 -299 0
184 -310 -347 0
184 -310 -371 0
184 -310 -395 0
184 -334 -299 0
184 -334 -323 0
184 -334 -371 0
184 -334 -395 0
184 -358 -299 0
184 -358 -323 0
184 -358 -347 0
184 -358 -395 0
184 -382 -299 0
184 -382 -323 0
184 -382 -347 0
184 -382 -371 0
185 -286 -324 0
185 -286 -348 0
185 -286 -372 0
185 -286 -396 0
185 -310 -300 0
185 -310 -348 0
185 -310 -372 0
185 -310 -396 0
185 -334 -300 0
185 -334 -324 0
185 -334 -372 0
185 -334 -396 0
185 -358 -300 0
185 -358 -324 0
185 -358 -348 0
185 -358 -396 0
185 -382 -300 0
185 -382 -324 0
185 -382 -348 0
185 -382 -372 0
186 -287 -312 0
186 -287 -336 0
186 -287 -360 0
186 -287 -384 0
186 -311 -288 0
186 -311 -336 0
186 -311 -360 0
186 -311 -384 0
186 -335 -288 0
186 -335 -312 0
186 -335 -360 0
186 -335 -384 0
186 -359 -288 0
186 -359 -312 0
186 -359 -336 0
186 -359 -384 0
186 -383 -288 0
186 -383 -312 0
186 -383 -336 0
186 -383 -360 0
187 -287 -313 0
187 -287 -337 0
187 -287 -361 0
187 -287 -385 0
187 -311 -289 0
187 -311 -337 0
187 -311 -361 0
187 -311 -385 0
187 -335 -289 0
187 -335 -313 0
187 -335 -361 0
187 -335 -385 0
187 -359 -289 0
187 -359 -313 0
187 -359 -337 0
187 -359 -385 0
187 -383 -289 0
187 -383 -313 0
187 -383 -337 0
187 -383 -361 0
188 -287 -314 0
188 -287 -338 0
188 -287 -362 0
188 -287 -386 0
188 -311 -290 0
188 -311 -338 0
188 -311 -362 0
188 -311 -386 0
188 -335 -290 0
188 -335 -314 0
188 -335 -362 0
188 -335 -386 0
188 -359 -290 0
188 -359 -314 0
188 -359 -338 0
188 -359 -386 0
188 -383 -290 0
188 -383 -314 0
188 -383 -338 0
188 -383 -362 0
189 -287 -315 0
189 -287 -339 0
189 -287 -363 0
189 -287 -387 0
189 -311 -291 0
189 -311 -339 0
189 -311 -363 0
189 -311 -387 0
189 -335 -291 0
189 -335 -315 0
189 -335 -363 0
189 -335 -387 0
189 -359 -291 0
189 -359 -315 0
189 -359 -339 0
189 -359 -387 0
189 -383 -291 0
189 -383 -315 0
189 -383 -339 0
189 -383 -363 0
190 -287 -316 0
190 -287 -340 0
190 -287 -364 0
190 -287 -388 0
190 -311 -292 0
190 -311 -340 0
190 -311 -364 0
190 -311 -388 0
190 -335 -292 0
190 -335 -316 0
190 -335 -364 0
190 -335 -388 0
190 -359 -292 0
190 -359 -316 0
190 -359 -340 0
190 -359 -388 0
190 -383 -292 0
190 -383 -316 0
190 -383 -340 0
190 -383 -364 0
191 -287 -317 0
191 -287 -341 0
191 -287 -365 0
191 -287 -389 0
191 -311 -293 0
191 -311 -341 0
191 -311 -365 0
191 -311 -389 0
191 -335 -293 0
191 -335 -317 0
191 -335 -365 0
191 -335 -389 0
191 -359 -293 0
191 -359 -317 0
191 -359 -341 0
191 -359 -389 0
191 -383 -293 0
191 -383 -317 0
191 -383 -341 0
191 -383 -365 0
192 -287 -318 0
192 -287 -342 0
192 -287 -366 0
192 -287 -390 0
192 -311 -294 0
192 -311 -342 0
192 -311 -366 0
192 -311 -390 0
192 -335 -294 0
192 -335 -318 0
192 -335 -366 0
192 -335 -390 0
192 -359 -294 0
192 -359 -318 0
192 -359 -342 0
192 -359 -390 0
192 -383 -294 0
192 -383 -318 0
192 -383 -342 0
192 -383 -366 0
193 -287 -319 0
193 -287 -343 0
193 -287 -367 0
193 -287 -391 0
193 -311 -295 0
193 -311 -343 0
193 -311 -367 0
193 -311 -391 0
193 -335 -295 0
193 -335 -319 0
193 -335 -367 0
193 -335 -391 0
193 -359 -295 0
193 -359 -319 0
193 -359 -343 0
193 -359 -391 0
193 -383 -295 0
193 -383 -319 0
193 -383 -343 0
193 -383 -367 0
194 -287 -320 0
194 -287 -344 0
194 -287 -368 0
194 -287 -392 0
194 -311 -296 0
194 -311 -344 0
194 -311 -368 0
194 -311 -392 0
194 -335 -296 0
194 -335 -320 0
194 -335 -368 0
194 -335 -392 0
194 -359 -296 0
194 -359 -320 0
194 -359 -344 0
194 -359 -392 0
194 -383 -296 0
194 -383 -320 0
194 -383 -344 0
194 -383 -368 0
195 -287 -321 0
195 -287 -345 0
195 -287 -369 0
195 -287 -393 0
195 -311 -297 0
195 -311 -345 0
195 -311 -369 0
195 -311 -393 0
195 -335 -297 0
195 -335 -321 0
195 -335 -369 0
195 -335 -393 0
195 -359 -297 0
195 -359 -321 0
195 -359 -345 0
195 -359 -393 0
195 -383 -297 0
195 -383 -321 0
195 -383 -345 0
195 -383 -369 0
196 -287 -322 0
196 -287 -346 0
196 -287 -370 0
196 -287 -394 0
196 -311 -298 0
196 -311 -346 0
196 -311 -370 0
196 -311 -394 0
196 -335 -298 0
196 -335 -322 0
196 -335 -370 0
196 -335 -394 0
196 -359 -298 0
196 -359 -322 0
196 -359 -346 0
196 -359 -394 0
196 -383 -298 0
196 -383 -322 0
196 -383 -346 0
196 -383 -370 0
197 -287 -323 0
197 -287 -347 0
197 -287 -371 0
197 -287 -395 0
197 -311 -299 0
197 -311 -347 0
197 -311 -371 0
197 -311 -395 0
197 -335 -299 0
197 -335 -323 0
197 -335 -371 0
197 -335 -395 0
197 -359 -299 0
197 -359 -323 0
197 -359 -347 0
197 -359 -395 0
197 -383 -299 0
197 -383 -323 0
197 -383 -347 0
197 -383 -371 0
198 -287 -324 0
198 -287 -348 0
198 -287 -372 0
198 -287 -396 0
198 -311 -300 0
198 -311 -348 0
198 -311 -372 0
198 -311 -396 0
198 -335 -300 0
198 -335 -324 0
198 -335 -372 0
198 -335 -396 0
198 -359 -300 0
198 -359 -324 0
198 -359 -348 0
198 -359 -396 0
198 -383 -300 0
198 -383 -324 0
198 -383 -348 0
198 -383 -372 0
199 -288 -313 0
199 -288 -337 0
199 -288 -361 0
199 -288 -385 0
199 -312 -289 0
199 -312 -337 0
199 -312 -361 0
199 -312 -385 0
199 -336 -289 0
199 -336 -313 0
199 -336 -361 0
199 -336 -385 0
199 -360 -289 0
199 -360 -313 0
199 -360 -337 0
199 -360 -385 0
199 -384 -289 0
199 -384 -313 0
199 -384 -337 0
199 -384 -361 0
200 -288 -314 0
200 -288 -338 0
200 -288 -362 0
200 -288 -386 0
200 -312 -290 0
200 -312 -338 0
200 -312 -362 0
200 -312 -386 0
200 -336 -290 0
200 -336 -314 0
200 -336 -362 0
200 -336 -386 0
200 -360 -290 0
200 -360 -314 0
200 -360 -338 0
200 -360 -386 0
200 -384 -290 0
200 -384 -314 0
200 -384 -338 0
200 -384 -362 0
201 -288 -315 0
201 -288 -339 0
201 -288 -363 0
201 -288 -387 0
201 -312 -291 0
201 -312 -339 0
201 -312 -363 0
201 -312 -387 0
201 -336 -291 0
201 -336 -315 0
201 -336 -363 0
201 -336 -387 0
201 -360 -291 0
201 -360 -315 0
201 -360 -339 0
201 -360 -387 0
201 -384 -291 0
201 -384 -315 0
201 -384 -339 0
201 -384 -363 0
202 -288 -316 0
202 -288 -340 0
202 -288 -364 0
202 -288 -388 0
202 -312 -292 0
202 -312 -340 0
202 -312 -364 0
202 -312 -388 0
202 -336 -292 0
202 -336 -316 0
202 -336 -364 0
202 -336 -388 0
202 -360 -292 0
202 -360 -316 0
202 -360 -340 0
202 -360 -388 0
202 -384 -292 0
202 -384 -316 0
202 -384 -340 0
202 -384 -364 0
203 -288 -317 0
203 -288 -341 0
203 -288 -365 0
203 -288 -389 0
203 -312 -293 0
203 -312 -341 0
203 -312 -365 0
203 -312 -389 0
203 -336 -293 0
203 -336 -317 0
203 -336 -365 0
203 -336 -389 0
203 -360 -293 0
203 -360 -317 0
203 -360 -341 0
203 -360 -389 0
203 -384 -293 0
203 -384 -317 0
203 -384 -341 0
203 -384 -365 0
204 -288 -318 0
204 -288 -342 0
204 -288 -366 0
204 -288 -390 0
204 -312 -294 0
204 -312 -342 0
204 -312 -366 0
204 -312 -390 0
204 -336 -294 0
204 -336 -318 0
204 -336 -366 0
204 -336 -390 0
204 -360 -294 0
204 -360 -318 0
204 -360 -342 0
204 -360 -390 0
204 -384 -294 0
204 -384 -318 0
204 -384 -342 0
204 -384 -366 0
205 -288 -319 0
205 -288 -343 0
205 -288 -367 0
205 -288 -391 0
205 -312 -295 0
205 -312 -343 0
205 -312 -367 0
205 -312 -391 0
205 -336 -295 0
205 -336 -319 0
205 -336 -367 0
205 -336 -391 0
205 -360 -295 0
205 -360 -319 0
205 -360 -343 0
205 -360 -391 0
205 -384 -295 0
205 -384 -319 0
205 -384 -343 0
205 -384 -367 0
206 -288 -320 0
206 -288 -344 0
206 -288 -368 0
206 -288 -392 0
206 -312 -296 0
206 -312 -344 0
206 -312 -368 0
206 -312 -392 0
206 -336 -296 0
206 -336 -320 0
206 -336 -368 0
206 -336 -392 0
206 -360 -296 0
206 -360 -320 0
206 -360 -344 0
206 -360 -392 0
206 -384 -296 0
206 -384 -320 0
206 -384 -344 0
206 -384 -368 0
207 -288 -321 0
207 -288 -345 0
207 -288 -369 0
207 -288 -393 0
207 -312 -297 0
207 -312 -345 0
207 -312 -369 0
207 -312 -393 0
207 -336 -297 0
207 -336 -321 0
207 -336 -369 0
207 -336 -393 0
207 -360 -297 0
207 -360 -321 0
207 -360 -345 0
207 -360 -393 0
207 -384 -297 0
207 -384 -321 0
207 -384 -345 0
207 -384 -369 0
208 -288 -322 0
208 -288 -346 0
208 -288 -370 0
208 -288 -394 0
208 -312 -298 0
208 -312 -346 0
208 -312 -370 0
208 -312 -394 0
208 -336 -298 0
208 -336 -322 0
208 -336 -370 0
208 -336 -394 0
208 -360 -298 0
208 -360 -322 0
208 -360 -346 0
208 -360 -394 0
208 -384 -298 0
208 -384 -322 0
208 -384 -346 0
208 -384 -370 0
209 -288 -323 0
209 -288 -347 0
209 -288 -371 0
209 -288 -395 0
209 -312 -299 0
209 -312 -347 0
209 -312 -371 0
209 -312 -395 0
209 -336 -299 0
209 -336 -323 0
209 -336 -371 0
209 -336 -395 0
209 -360 -299 0
209 -360 -323 0
209 -360 -347 0
209 -360 -395 0
209 -384 -299 0
209 -384 -323 0
209 -384 -347 0
209 -384 -371 0
210 -288 -324 0
210 -288 -348 0
210 -288 -372 0
210 -288 -396 0
210 -312 -300 0
210 -312 -348 0
210 -312 -372 0
210 -312 -396 0
210 -336 -300 0
210 -336 -324 0
210 -336 -372 0
210 -336 -396 0
210 -360 -300 0
210 -360 -324 0
210 -360 -348 0
210 -360 -396 0
210 -384 -300 0
210 -384 -324 0
210 -384 -348 0
210 -384 -372 0
211 -289 -314 0
211 -289 -338 0
211 -289 -362 0
211 -289 -386 0
211 -313 -290 0
211 -313 -338 0
211 -313 -362 0
211 -313 -386 0
211 -337 -290 0
211 -337 -314 0
211 -337 -362 0
211 -337 -386 0
211 -361 -290 0
211 -361 -314 0
211 -361 -338 0
211 -361 -386 0
211 -385 -290 0
211 -385 -314 0
211 -385 -338 0
211 -385 -362 0
212 -289 -315 0
212 -289 -339 0
212 -289 -363 0
212 -289 -387 0
212 -313 -291 0
212 -313 -339 0
212 -313 -363 0
212 -313 -387 0
212 -337 -291 0
212 -337 -315 0
212 -337 -363 0
212 -337 -387 0
212 -361 -291 0
212 -361 -315 0
212 -361 -339 0
212 -361 -387 0
212 -385 -291 0
212 -385 -315 0
212 -385 -339 0
212 -385 -363 0
213 -289 -316 0
213 -289 -340 0
213 -289 -364 0
213 -289 -388 0
213 -313 -292 0
213 -313 -340 0
213 -313 -364 0
213 -313 -388 0
213 -337 -292 0
213 -337 -316 0
213 -337 -364 0
213 -337 -388 0
213 -361 -292 0
213 -361 -316 0
213 -361 -340 0
213 -361 -388 0
213 -385 -292 0
213 -385 -316 0
213 -385 -340 0
213 -385 -364 0
214 -289 -317 0
214 -289 -341 0
214 -289 -365 0
214 -289 -389 0
214 -313 -293 0
214 -313 -341 0
214 -313 -365 0
214 -313 -389 0
214 -337 -293 0
214 -337 -317 0
214 -337 -365 0
214 -337 -389 0
214 -361 -293 0
214 -361 -317 0
214 -361 -341 0
214 -361 -389 0
214 -385 -293 0
214 -385 -317 0
214 -385 -341 0
214 -385 -365 0
215 -289 -318 0
215 -289 -342 0
215 -289 -366 0
215 -289 -390 0
215 -313 -294 0
215 -313 -342 0
215 -313 -366 0
215 -313 -390 0
215 -337 -294 0
215 -337 -318 0
215 -337 -366 0
215 -337 -390 0
215 -361 -294 0
215 -361 -318 0
215 -361 -342 0
215 -361 -390 0
215 -385 -294 0
215 -385 -318 0
215 -385 -342 0
215 -385 -366 0
216 -289 -319 0
216 -289 -343 0
216 -289 -367 0
216 -289 -391 0
216 -313 -295 0
216 -313 -343 0
216 -313 -367 0
216 -313 -391 0
216 -337 -295 0
216 -337 -319 0
216 -337 -367 0
216 -337 -391 0
216 -361 -295 0
216 -361 -319 0
216 -361 -343 0
216 -361 -391 0
216 -385 -295 0
216 -385 -319 0
216 -385 -343 0
216 -385 -367 0
217 -289 -320 0
217 -289 -344 0
217 -289 -368 0
217 -289 -392 0
217 -313 -296 0
217 -313 -344 0
217 -313 -368 0
217 -313 -392 0
217 -337 -296 0
217 -337 -320 0
217 -337 -368 0
217 -337 -392 0
217 -361 -296 0
217 -361 -320 0
217 -361 -344 0
217 -361 -392 0
217 -385 -296 0
217 -385 -320 0
217 -385 -344 0
217 -385 -368 0
218 -289 -321 0
218 -289 -345 0
218 -289 -369 0
218 -289 -393 0
218 -313 -297 0
218 -313 -345 0
218 -313 -369 0
218 -313 -393 0
218 -337 -297 0
218 -337 -321 0
218 -337 -369 0
218 -337 -393 0
218 -361 -297 0
218 -361 -321 0
218 -361 -345 0
218 -361 -393 0
218 -385 -297 0
218 -385 -321 0
218 -385 -345 0
218 -385 -369 0
219 -289 -322 0
219 -289 -346 0
219 -289 -370 0
219 -289 -394 0
219 -313 -298 0
219 -313 -346 0
219 -313 -370 0
219 -313 -394 0
219 -337 -298 0
219 -337 -322 0
219 -337 -370 0
219 -337 -394 0
219 -361 -298 0
219 -361 -322 0
219 -361 -346 0
219 -361 -394 0
219 -385 -298 0
219 -385 -322 0
219 -385 -346 0
219 -385 -370 0
220 -289 -323 0
220 -289 -347 0
220 -289 -371 0
220 -289 -395 0
220 -313 -299 0
220 -313 -347 0
220 -313 -371 0
220 -313 -395 0
220 -337 -299 0
220 -337 -323 0
220 -337 -371 0
220 -337 -395 0
220 -361 -299 0
220 -361 -323 0
220 -361 -347 0
220 -361 -395 0
220 -385 -299 0
220 -385 -323 0
220 -385 -347 0
220 -385 -371 0
221 -289 -324 0
221 -289 -348 0
221 -289 -372 0
221 -289 -396 0
221 -313 -300 0
221 -313 -348 0
221 -313 -372 0
221 -313 -396 0
221 -337 -300 0
221 -337 -324 0
221 -337 -372 0
221 -337 -396 0
221 -361 -300 0
221 -361 -324 0
221 -361 -348 0
221 -361 -396 0
221 -385 -300 0
221 -385 -324 0
221 -385 -348 0
221 -385 -372 0
222 -290 -315 0
222 -290 -339 0
222 -290 -363 0
222 -290 -387 0
222 -314 -291 0
222 -314 -339 0
222 -314 -363 0
222 -314 -387 0
222 -338 -291 0
222 -338 -315 0
222 -338 -363 0
222 -338 -387 0
222 -362 -291 0
222 -362 -315 0
222 -362 -339 0
222 -362 -387 0
222 -386 -291 0
222 -386 -315 0
222 -386 -339 0
222 -386 -363 0
223 -290 -316 0
223 -290 -340 0
223 -290 -364 0
223 -290 -388 0
223 -314 -292 0
223 -314 -340 0
223 -314 -364 0
223 -314 -388 0
223 -338 -292 0
223 -338 -316 0
223 -338 -364 0
223 -338 -388 0
223 -362 -292 0
223 -362 -316 0
223 -362 -340 0
223 -362 -388 0
223 -386 -292 0
223 -386 -316 0
223 -386 -340 0
223 -386 -364 0
224 -290 -317 0
224 -290 -341 0
224 -290 -365 0
224 -290 -389 0
224 -314 -293 0
224 -314 -341 0
224 -314 -365 0
224 -314 -389 0
224 -338 -293 0
224 -338 -317 0
224 -338 -365 0
224 -338 -389 0
224 -362 -293 0
224 -362 -317 0
224 -362 -341 0
224 -362 -389 0
224 -386 -293 0
224 -386 -317 0
224 -386 -341 0
224 -386 -365 0
225 -290 -318 0
225 -290 -342 0
225 -290 -366 0
225 -290 -390 0
225 -314 -294 0
225 -314 -342 0
225 -314 -366 0
225 -314 -390 0
225 -338 -294 0
225 -338 -318 0
225 -338 -366 0
225 -338 -390 0
225 -362 -294 0
225 -362 -318 0
225 -362 -342 0
225 -362 -390 0
225 -386 -294 0
225 -386 -318 0
225 -386 -342 0
225 -386 -366 0
226 -290 -319 0
226 -290 -343 0
226 -290 -367 0
226 -290 -391 0
226 -314 -295 0
226 -314 -343 0
226 -314 -367 0
226 -314 -391 0
226 -338 -295 0
226 -338 -319 0
226 -338 -367 0
226 -338 -391 0
226 -362 -295 0
226 -362 -319 0
226 -362 -343 0
226 -362 -391 0
226 -386 -295 0
226 -386 -319 0
226 -386 -343 0
226 -386 -367 0
227 -290 -320 0
227 -290 -344 0
227 -290 -368 0
227 -290 -392 0
227 -314 -296 0
227 -314 -344 0
227 -314 -368 0
227 -314 -392 0
227 -338 -296 0
227 -338 -320 0
227 -338 -368 0
227 -338 -392 0
227 -362 -296 0
227 -362 -320 0
227 -362 -344 0
227 -362 -392 0
227 -386 -296 0
227 -386 -320 0
227 -386 -344 0
227 -386 -368 0
228 -290 -321 0
228 -290 -345 0
228 -290 -369 0
228 -290 -393 0
228 -314 -297 0
228 -314 -345 0
228 -314 -369 0
228 -314 -393 0
228 -338 -297 0
228 -338 -321 0
228 -338 -369 0
228 -338 -393 0
228 -362 -297 0
228 -362 -321 0
228 -362 -345 0
228 -362 -393 0
228 -386 -297 0
228 -386 -321 0
228 -386 -345 0
228 -386 -369 0
229 -290 -322 0
229 -290 -346 0
229 -290 -370 0
229 -290 -394 0
229 -314 -298 0
229 -314 -346 0
229 -314 -370 0
229 -314 -394 0
229 -338 -298 0
229 -338 -322 0
229 -338 -370 0
229 -338 -394 0
229 -362 -298 0
229 -362 -322 0
229 -362 -346 0
229 -362 -394 0
229 -386 -298 0
229 -386 -322 0
229 -386 -346 0
229 -386 -370 0
230 -290 -323 0
230 -290 -347 0
230 -290 -371 0
230 -290 -395 0
230 -314 -299 0
230 -314 -347 0
230 -314 -371 0
230 -314 -395 0
230 -338 -299 0
230 -338 -323 0
230 -338 -371 0
230 -338 -395 0
230 -362 -299 0
230 -362 -323 0
230 -362 -347 0
230 -362 -395 0
230 -386 -299 0
230 -386 -323 0
230 -386 -347 0
230 -386 -371 0
231 -290 -324 0
231 -290 -348 0
231 -290 -372 0
231 -290 -396 0
231 -314 -300 0
231 -314 -348 0
231 -314 -372 0
231 -314 -396 0
231 -338 -300 0
231 -338 -324 0
231 -338 -372 0
231 -338 -396 0
231 -362 -300 0
231 -362 -324 0
231 -362 -348 0
231 -362 -396 0
231 -386 -300 0
231 -386 -324 0
231 -386 -348 0
231 -386 -372 0
232 -291 -316 0
232 -291 -340 0
232 -291 -364 0
232 -291 -388 0
232 -315 -292 0
232 -315 -340 0
232 -315 -364 0
232 -315 -388 0
232 -339 -292 0
232 -339 -316 0
232 -339 -364 0
232 -339 -388 0
232 -363 -292 0
232 -363 -316 0
232 -363 -340 0
232 -363 -388 0
232 -387 -292 0
232 -387 -316 0
232 -387 -340 0
232 -387 -364 0
233 -291 -317 0
233 -291 -341 0
233 -291 -365 0
233 -291 -389 0
233 -315 -293 0
233 -315 -341 0
233 -315 -365 0
233 -315 -389 0
233 -339 -293 0
233 -339 -317 0
233 -339 -365 0
233 -339 -389 0
233 -363 -293 0
233 -363 -317 0
233 -363 -341 0
233 -363 -389 0
233 -387 -293 0
233 -387 -317 0
233 -387 -341 0
233 -387 -365 0
234 -291 -318 0
234 -291 -342 0
234 -291 -366 0
234 -291 -390 0
234 -315 -294 0
234 -315 -342 0
234 -315 -366 0
234 -315 -390 0
234 -339 -294 0
234 -339 -318 0
234 -339 -366 0
234 -339 -390 0
234 -363 -294 0
234 -363 -318 0
234 -363 -342 0
234 -363 -390 0
234 -387 -294 0
234 -387 -318 0
234 -387 -342 0
234 -387 -366 0
235 -291 -319 0
235 -291 -343 0
235 -291 -367 0
235 -291 -391 0
235 -315 -295 0
235 -315 -343 0
235 -315 -367 0
235 -315 -391 0
235 -339 -295 0
235 -339 -319 0
235 -339 -367 0
235 -339 -391 0
235 -363 -295 0
235 -363 -319 0
235 -363 -343 0
235 -363 -391 0
235 -387 -295 0
235 -387 -319 0
235 -387 -343 0
235 -387 -367 0
236 -291 -320 0
236 -291 -344 0
236 -291 -368 0
236 -291 -392 0
236 -315 -296 0
236 -315 -344 0
236 -315 -368 0
236 -315 -392 0
236 -339 -296 0
236 -339 -320 0
236 -339 -368 0
236 -339 -392 0
236 -363 -296 0
236 -363 -320 0
236 -363 -344 0
236 -363 -392 0
236 -387 -296 0
236 -387 -320 0
236 -387 -344 0
236 -387 -368 0
237 -291 -321 0
237 -291 -345 0
237 -291 -369 0
237 -291 -393 0
237 -315 -297 0
237 -315 -345 0
237 -315 -369 0
237 -315 -393 0
237 -339 -297 0
237 -339 -321 0
237 -339 -369 0
237 -339 -393 0
237 -363 -297 0
237 -363 -321 0
237 -363 -345 0
237 -363 -393 0
237 -387 -297 0
237 -387 -321 0
237 -387 -345 0
237 -387 -369 0
238 -291 -322 0
238 -291 -346 0
238 -291 -370 0
238 -291 -394 0
238 -315 -298 0
238 -315 -346 0
238 -315 -370 0
238 -315 -394 0
238 -339 -298 0
238 -339 -322 0
238 -339 -370 0
238 -339 -394 0
238 -363 -298 0
238 -363 -322 0
238 -363 -346 0
238 -363 -394 0
238 -387 -298 0
238 -387 -322 0
238 -387 -346 0
238 -387 -370 0
239 -291 -323 0
239 -291 -347 0
239 -291 -371 0
239 -291 -395 0
239 -315 -299 0
239 -315 -347 0
239 -315 -371 0
239 -315 -395 0
239 -339 -299 0
239 -339 -323 0
239 -339 -371 0
239 -339 -395 0
239 -363 -299 0
239 -363 -323 0
239 -363 -347 0
239 -363 -395 0
239 -387 -299 0
239 -387 -323 0
239 -387 -347 0
239 -387 -371 0
240 -291 -324 0
240 -291 -348 0
240 -291 -372 0
240 -291 -396 0
240 -315 -300 0
240 -315 -348 0
240 -315 -372 0
240 -315 -396 0
240 -339 -300 0
240 -339 -324 0
240 -339 -372 0
240 -339 -396 0
240 -363 -300 0
240 -363 -324 0
240 -363 -348 0
240 -363 -396 0
240 -387 -300 0
240 -387 -324 0
240 -387 -348 0
240 -387 -372 0
241 -292 -317 0
241 -292 -341 0
241 -292 -365 0
241 -292 -389 0
241 -316 -293 0
241 -316 -341 0
241 -316 -365 0
241 -316 -389 0
241 -340 -293 0
241 -340 -317 0
241 -340 -365 0
241 -340 -389 0
241 -364 -293 0
241 -364 -317 0
241 -364 -341 0
241 -364 -389 0
241 -388 -293 0
241 -388 -317 0
241 -388 -341 0
241 -388 -365 0
242 -292 -318 0
242 -292 -342 0
242 -292 -366 0
242 -292 -390 0
242 -316 -294 0
242 -316 -342 0
242 -316 -366 0
242 -316 -390 0
242 -340 -294 0
242 -340 -318 0
242 -340 -366 0
242 -340 -390 0
242 -364 -294 0
242 -364 -318 0
242 -364 -342 0
242 -364 -390 0
242 -388 -294 0
242 -388 -318 0
242 -388 -342 0
242 -388 -366 0
243 -292 -319 0
243 -292 -343 0
243 -292 -367 0
243 -292 -391 0
243 -316 -295 0
243 -316 -343 0
243 -316 -367 0
243 -316 -391 0
243 -340 -295 0
243 -340 -319 0
243 -340 -367 0
243 -340 -391 0
243 -364 -295 0
243 -364 -319 0
243 -364 -343 0
243 -364 -391 0
243 -388 -295 0
243 -388 -319 0
243 -388 -343 0
243 -388 -367 0
244 -292 -320 0
244 -292 -344 0
244 -292 -368 0
244 -292 -392 0
244 -316 -296 0
244 -316 -344 0
244 -316 -368 0
244 -316 -392 0
244 -340 -296 0
244 -340 -320 0
244 -340 -368 0
244 -340 -392 0
244 -364 -296 0
244 -364 -320 0
244 -364 -344 0
244 -364 -392 0
244 -388 -296 0
244 -388 -320 0
244 -388 -344 0
244 -388 -368 0
245 -292 -321 0
245 -292 -345 0
245 -292 -369 0
245 -292 -393 0
245 -316 -297 0
245 -316 -345 0
245 -316 -369 0
245 -316 -393 0
245 -340 -297 0
245 -340 -321 0
245 -340 -369 0
245 -340 -393 0
245 -364 -297 0
245 -364 -321 0
245 -364 -345 0
245 -364 -393 0
245 -388 -297 0
245 -388 -321 0
245 -388 -345 0
245 -388 -369 0
246 -292 -322 0
246 -292 -346 0
246 -292 -370 0
246 -292 -394 0
246 -316 -298 0
246 -316 -346 0
246 -316 -370 0
246 -316 -394 0
246 -340 -298 0
246 -340 -322 0
246 -340 -370 0
246 -340 -394 0
246 -364 -298 0
246 -364 -322 0
246 -364 -346 0
246 -364 -394 0
246 -388 -298 0
246 -388 -322 0
246 -388 -346 0
246 -388 -370 0
247 -292 -323 0
247 -292 -347 0
247 -292 -371 0
247 -292 -395 0
247 -316 -299 0
247 -316 -347 0
247 -316 -371 0
247 -316 -395 0
247 -340 -299 0
247 -340 -323 0
247 -340 -371 0
247 -340 -395 0
247 -364 -299 0
247 -364 -323 0
247 -364 -347 0
247 -364 -395 0
247 -388 -299 0
247 -388 -323 0
247 -388 -347 0
247 -388 -371 0
248 -292 -324 0
248 -292 -348 0
248 -292 -372 0
248 -292 -396 0
248 -316 -300 0
248 -316 -348 0
248 -316 -372 0
248 -316 -396 0
248 -340 -300 0
248 -340 -324 0
248 -340 -372 0
248 -340 -396 0
248 -364 -300 0
248 -364 -324 0
248 -364 -348 0
248 -364 -396 0
248 -388 -300 0
248 -388 -324 0
248 -388 -348 0
248 -388 -372 0
249 -293 -318 0
249 -293 -342 0
249 -293 -366 0
249 -293 -390 0
249 -317 -294 0
249 -317 -342 0
249 -317 -366 0
249 -317 -390 0
249 -341 -294 0
249 -341 -318 0
249 -341 -366 0
249 -341 -390 0
249 -365 -294 0
249 -365 -318 0
249 -365 -342 0
249 -365 -390 0
249 -389 -294 0
249 -389 -318 0
249 -389 -342 0
249 -389 -366 0
250 -293 -319 0
250 -293 -343 0
250 -293 -367 0
250 -293 -391 0
250 -317 -295 0
250 -317 -343 0
250 -317 -367 0
250 -317 -391 0
250 -341 -295 0
250 -341 -319 0
250 -341 -367 0
250 -341 -391 0
250 -365 -295 0
250 -365 -319 0
250 -365 -343 0
250 -365 -391 0
250 -389 -295 0
250 -389 -319 0
250 -389 -343 0
250 -389 -367 0
251 -293 -320 0
251 -293 -344 0
251 -293 -368 0
251 -293 -392 0
251 -317 -296 0
251 -317 -344 0
251 -317 -368 0
251 -317 -392 0
251 -341 -296 0
251 -341 -320 0
251 -341 -368 0
251 -341 -392 0
251 -365 -296 0
251 -365 -320 0
251 -365 -344 0
251 -365 -392 0
251 -389 -296 0
251 -389 -320 0
251 -389 -344 0
251 -389 -368 0
252 -293 -321 0
252 -293 -345 0
252 -293 -369 0
252 -293 -393 0
252 -317 -297 0
252 -317 -345 0
252 -317 -369 0
252 -317 -393 0
252 -341 -297 0
252 -341 -321 0
252 -341 -369 0
252 -341 -393 0
252 -365 -297 0
252 -365 -321 0
252 -365 -345 0
252 -365 -393 0
252 -389 -297 0
252 -389 -321 0
252 -389 -345 0
252 -389 -369 0
253 -293 -322 0
253 -293 -346 0
253 -293 -370 0
253 -293 -394 0
253 -317 -298 0
253 -317 -346 0
253 -317 -370 0
253 -317 -394 0
253 -341 -298 0
253 -341 -322 0
253 -341 -370 0
253 -341 -394 0
253 -365 -298 0
253 -365 -322 0
253 -365 -346 0
253 -365 -394 0
253 -389 -298 0
253 -389 -322 0
253 -389 -346 0
253 -389 -370 0
254 -293 -323 0
254 -293 -347 0
254 -293 -371 0
254 -293 -395 0
254 -317 -299 0
254 -317 -347 0
254 -317 -371 0
254 -317 -395 0
254 -341 -299 0
254 -341 -323 0
254 -341 -371 0
254 -341 -395 0
254 -365 -299 0
254 -365 -323 0
254 -365 -347 0
254 -365 -395 0
254 -389 -299 0
254 -389 -323 0
254 -389 -347 0
254 -389 -371 0
255 -293 -324 0
255 -293 -348 0
255 -293 -372 0
255 -293 -396 0
255 -317 -300 0
255 -317 -348 0
255 -317 -372 0
255 -317 -396 0
255 -341 -300 0
255 -341 -324 0
255 -341 -372 0
255 -341 -396 0
255 -365 -300 0
255 -365 -324 0
255 -365 -348 0
255 -365 -396 0
255 -389 -300 0
255 -389 -324 0
255 -389 -348 0
255 -389 -372 0
256 -294 -319 0
256 -294 -343 0
256 -294 -367 0
256 -294 -391 0
256 -318 -295 0
256 -318 -343 0
256 -318 -367 0
256 -318 -391 0
256 -342 -295 0
256 -342 -319 0
256 -342 -367 0
256 -342 -391 0
256 -366 -295 0
256 -366 -319 0
256 -366 -343 0
256 -366 -391 0
256 -390 -295 0
256 -390 -319 0
256 -390 -343 0
256 -390 -367 0
257 -294 -320 0
257 -294 -344 0
257 -294 -368 0
257 -294 -392 0
257 -318 -296 0
257 -318 -344 0
257 -318 -368 0
257 -318 -392 0
257 -342 -296 0
257 -342 -320 0
257 -342 -368 0
257 -342 -392 0
257 -366 -296 0
257 -366 -320 0
257 -366 -344 0
257 -366 -392 0
257 -390 -296 0
257 -390 -320 0
257 -390 -344 0
257 -390 -368 0
258 -294 -321 0
258 -294 -345 0
258 -294 -369 0
258 -294 -393 0
258 -318 -297 0
258 -318 -345 0
258 -318 -369 0
258 -318 -393 0
258 -342 -297 0
258 -342 -321 0
258 -342 -369 0
258 -342 -393 0
258 -366 -297 0
258 -366 -321 0
258 -366 -345 0
258 -366 -393 0
258 -390 -297 0
258 -390 -321 0
258 -390 -345 0
258 -390 -369 0
259 -294 -322 0
259 -294 -346 0
259 -294 -370 0
259 -294 -394 0
259 -318 -298 0
259 -318 -346 0
259 -318 -370 0
259 -318 -394 0
259 -342 -298 0
259 -342 -322 0
259 -342 -370 0
259 -342 -394 0
259 -366 -298 0
259 -366 -322 0
259 -366 -346 0
259 -366 -394 0
259 -390 -298 0
259 -390 -322 0
259 -390 -346 0
259 -390 -370 0
260 -294 -323 0
260 -294 -347 0
260 -294 -371 0
260 -294 -395 0
260 -318 -299 0
260 -318 -347 0
260 -318 -371 0
260 -318 -395 0
260 -342 -299 0
260 -342 -323 0
260 -342 -371 0
260 -342 -395 0
260 -366 -299 0
260 -366 -323 0
260 -366 -347 0
260 -366 -395 0
260 -390 -299 0
260 -390 -323 0
260 -390 -347 0
260 -390 -371 0
261 -294 -324 0
261 -294 -348 0
261 -294 -372 0
261 -294 -396 0
261 -318 -300 0
261 -318 -348 0
261 -318 -372 0
261 -318 -396 0
261 -342 -300 0
261 -342 -324 0
261 -342 -372 0
261 -342 -396 0
261 -366 -300 0
261 -366 -324 0
261 -366 -348 0
261 -366 -396 0
261 -390 -300 0
261 -390 -324 0
261 -390 -348 0
261 -390 -372 0
262 -295 -320 0
262 -295 -344 0
262 -295 -368 0
262 -295 -392 0
262 -319 -296 0
262 -319 -344 0
262 -319 -368 0
262 -319 -392 0
262 -343 -296 0
262 -343 -320 0
262 -343 -368 0
262 -343 -392 0
262 -367 -296 0
262 -367 -320 0
262 -367 -344 0
262 -367 -392 0
262 -391 -296 0
262 -391 -320 0
262 -391 -344 0
262 -391 -368 0
263 -295 -321 0
263 -295 -345 0
263 -295 -369 0
263 -295 -393 0
263 -319 -297 0
263 -319 -345 0
263 -319 -369 0
263 -319 -393 0
263 -343 -297 0
263 -343 -321 0
263 -343 -369 0
263 -343 -393 0
263 -367 -297 0
263 -367 -321 0
263 -367 -345 0
263 -367 -393 0
263 -391 -297 0
263 -391 -321 0
263 -391 -345 0
263 -391 -369 0
264 -295 -322 0
264 -295 -346 0
264 -295 -370 0
264 -295 -394 0
264 -319 -298 0
264 -319 -346 0
264 -319 -370 0
264 -319 -394 0
264 -343 -298 0
264 -343 -322 0
264 -343 -370 0
264 -343 -394 0
264 -367 -298 0
264 -367 -322 0
264 -367 -346 0
264 -367 -394 0
264 -391 -298 0
264 -391 -322 0
264 -391 -346 0
264 -391 -370 0
265 -295 -323 0
265 -295 -347 0
265 -295 -371 0
265 -295 -395 0
265 -319 -299 0
265 -319 -347 0
265 -319 -371 0
265 -319 -395 0
265 -343 -299 0
265 -343 -323 0
265 -343 -371 0
265 -343 -395 0
265 -367 -299 0
265 -367 -323 0
265 -367 -347 0
265 -367 -395 0
265 -391 -299 0
265 -391 -323 0
265 -391 -347 0
265 -391 -371 0
266 -295 -324 0
266 -295 -348 0
266 -295 -372 0
266 -295 -396 0
266 -319 -300 0
266 -319 -348 0
266 -319 -372 0
266 -319 -396 0
266 -343 -300 0
266 -343 -324 0
266 -343 -372 0
266 -343 -396 0
266 -367 -300 0
266 -367 -324 0
266 -367 -348 0
266 -367 -396 0
266 -391 -300 0
266 -391 -324 0
266 -391 -348 0
266 -391 -372 0
267 -296 -321 0
267 -296 -345 0
267 -296 -369 0
267 -296 -393 0
267 -320 -297 0
267 -320 -345 0
267 -320 -369 0
267 -320 -393 0
267 -344 -297 0
267 -344 -321 0
267 -344 -369 0
267 -344 -393 0
267 -368 -297 0
267 -368 -321 0
267 -368 -345 0
267 -368 -393 0
267 -392 -297 0
267 -392 -321 0
267 -392 -345 0
267 -392 -369 0
268 -296 -322 0
268 -296 -346 0
268 -296 -370 0
268 -296 -394 0
268 -320 -298 0
268 -320 -346 0
268 -320 -370 0
268 -320 -394 0
268 -344 -298 0
268 -344 -322 0
268 -344 -370 0
268 -344 -394 0
268 -368 -298 0
268 -368 -322 0
268 -368 -346 0
268 -368 -394 0
268 -392 -298 0
268 -392 -322 0
268 -392 -346 0
268 -392 -370 0
269 -296 -323 0
269 -296 -347 0
269 -296 -371 0
269 -296 -395 0
269 -320 -299 0
269 -320 -347 0
269 -320 -371 0
269 -320 -395 0
269 -344 -299 0
269 -344 -323 0
269 -344 -371 0
269 -344 -395 0
269 -368 -299 0
269 -368 -323 0
269 -368 -347 0
269 -368 -395 0
269 -392 -299 0
269 -392 -323 0
269 -392 -347 0
269 -392 -371 0
270 -296 -324 0
270 -296 -348 0
270 -296 -372 0
270 -296 -396 0
270 -320 -300 0
270 -320 -348 0
270 -320 -372 0
270 -320 -396 0
270 -344 -300 0
270 -344 -324 0
270 -344 -372 0
270 -344 -396 0
270 -368 -300 0
270 -368 -324 0
270 -368 -348 0
270 -368 -396 0
270 -392 -300 0
270 -392 -324 0
270 -392 -348 0
270 -392 -372 0
271 -297 -322 0
271 -297 -346 0
271 -297 -370 0
271 -297 -394 0
271 -321 -298 0
271 -321 -346 0
271 -321 -370 0
271 -321 -394 0
271 -345 -298 0
271 -345 -322 0
271 -345 -370 0
271 -345 -394 0
271 -369 -298 0
271 -369 -322 0
271 -369 -346 0
271 -369 -394 0
271 -393 -298 0
271 -393 -322 0
271 -393 -346 0
271 -393 -370 0
272 -297 -323 0
272 -297 -347 0
272 -297 -371 0
272 -297 -395 0
272 -321 -299 0
272 -321 -347 0
272 -321 -371 0
272 -321 -395 0
272 -345 -299 0
272 -345 -323 0
272 -345 -371 0
272 -345 -395 0
272 -369 -299 0
272 -369 -323 0
272 -369 -347 0
272 -369 -395 0
272 -393 -299 0
272 -393 -323 0
272 -393 -347 0
272 -393 -371 0
273 -297 -324 0
273 -297 -348 0
273 -297 -372 0
273 -297 -396 0
273 -321 -300 0
273 -321 -348 0
273 -321 -372 0
273 -321 -396 0
273 -345 -300 0
273 -345 -324 0
273 -345 -372 0
273 -345 -396 0
273 -369 -300 0
273 -369 -324 0
273 -369 -348 0
273 -369 -396 0
273 -393 -300 0
273 -393 -324 0
273 -393 -348 0
273 -393 -372 0
274 -298 -323 0
274 -298 -347 0
274 -298 -371 0
274 -298 -395 0
274 -322 -299 0
274 -322 -347 0
274 -322 -371 0
274 -322 -395 0
274 -346 -299 0
274 -346 -323 0
274 -346 -371 0
274 -346 -395 0
274 -370 -299 0
274 -370 -323 0
274 -370 -347 0
274 -370 -395 0
274 -394 -299 0
274 -394 -323 0
274 -394 -347 0
274 -394 -371 0
275 -298 -324 0
275 -298 -348 0
275 -298 -372 0
275 -298 -396 0
275 -322 -300 0
275 -322 -348 0
275 -322 -372 0
275 -322 -396 0
275 -346 -300 0
275 -346 -324 0
275 -346 -372 0
275 -346 -396 0
275 -370 -300 0
275 -370 -324 0
275 -370 -348 0
275 -370 -396 0
275 -394 -300 0
275 -394 -324 0
275 -394 -348 0
275 -394 -372 0
276 -299 -324 0
276 -299 -348 0
276 -299 -372 0
276 -299 -396 0
276 -323 -300 0
276 -323 -348 0
276 -323 -372 0
276 -323 -396 0
276 -347 -300 0
276 -347 -324 0
276 -347 -372 0
276 -347 -396 0
276 -371 -300 0
276 -371 -324 0
276 -371 -348 0
276 -371 -396 0
276 -395 -300 0
276 -395 -324 0
276 -395 -348 0
276 -395 -372 0
-397 -398 0
-397 -399 0
-397 -400 0
-398 -399 0
-398 -400 0
-399 -400 0
397 398 399 400 0
-401 -402 0
-401 -403 0
-401 -404 0
-402 -403 0
-402 -404 0
-403 -404 0
401 402 403 404 0
-405 -406 0
-405 -407 0
-405 -408 0
-406 -407 0
-406 -408 0
-407 -408 0
405 406 407 408 0
-409 -410 0
-409 -411 0
-409 -412 0
-410 -411 0
-410 -412 0
-411 -412 0
409 410 411 412 0
-413 -414 0
-413 -415 0
-413 -416 0
-414 -415 0
-414 -416 0
-415 -416 0
413 414 415 416 0
-417 -418 0
-417 -419 0
-417 -420 0
-418 -419 0
-418 -420 0
-419 -420 0
417 418 419 420 0
-421 -422 0
-421 -423 0
-421 -424 0
-422 -423 0
-422 -424 0
-423 -424 0
421 422 423 424 0
-425 -426 0
-425 -427 0
-425 -428 0
-426 -427 0
-426 -428 0
-427 -428 0
425 426 427 428 0
-429 -430 0
-429 -431 0
-429 -432 0
-430 -431 0
-430 -432 0
-431 -432 0
429 430 431 432 0
-433 -434 0
-433 -435 0
-433 -436 0
-434 -435 0
-434 -436 0
-435 -436 0
433 434 435 436 0
-437 -438 0
-437 -439 0
-437 -440 0
-438 -439 0
-438 -440 0
-439 -440 0
437 438 439 440 0
-441 -442 0
-441 -443 0
-441 -444 0
-442 -443 0
-442 -444 0
-443 -444 0
441 442 443 444 0
-445 -446 0
-445 -447 0
-445 -448 0
-446 -447 0
-446 -448 0
-447 -448 0
445 446 447 448 0
-449 -450 0
-449 -451 0
-449 -452 0
-450 -451 0
-450 -452 0
-451 -452 0
449 450 451 452 0
-453 -454 0
-453 -455 0
-453 -456 0
-454 -455 0
-454 -456 0
-455 -456 0
453 454 455 456 0
-457 -458 0
-457 -459 0
-457 -460 0
-458 -459 0
-458 -460 0
-459 -460 0
457 458 459 460 0
-461 -462 0
-461 -463 0
-461 -464 0
-462 -463 0
-462 -464 0
-463 -464 0
461 462 463 464 0
-465 -466 0
-465 -467 0
-465 -468 0
-466 -467 0
-466 -468 0
-467 -468 0
465 466 467 468 0
-469 -470 0
-469 -471 0
-469 -472 0
-470 -471 0
-470 -472 0
-471 -472 0
469 470 471 472 0
-473 -474 0
-473 -475 0
-473 -476 0
-474 -475 0
-474 -476 0
-475 -476 0
473 474 475 476 0
-477 -478 0
-477 -479 0
-477 -480 0
-478 -479 0
-478 -480 0
-479 -480 0
477 478 479 480 0
-481 -482 0
-481 -483 0
-481 -484 0
-482 -483 0
-482 -484 0
-483 -484 0
481 482 483 484 0
-485 -486 0
-485 -487 0
-485 -488 0
-486 -487 0
-486 -488 0
-487 -488 0
485 486 487 488 0
-489 -490 0
-489 -491 0
-489 -492 0
-490 -491 0
-490 -492 0
-491 -492 0
489 490 491 492 0
-1 -397 -401 0
-1 -398 -402 0
-1 -399 -403 0
-1 -400 -404 0
-2 -397 -405 0
-2 -398 -406 0
-2 -399 -407 0
-2 -400 -408 0
-3 -397 -409 0
-3 -398 -410 0
-3 -399 -411 0
-3 -400 -412 0
-4 -397 -413 0
-4 -398 -414 0
-4 -399 -415 0
-4 -400 -416 0
-5 -397 -417 0
-5 -398 -418 0
-5 -399 -419 0
-5 -400 -420 0
-6 -397 -421 0
-6 -398 -422 0
-6 -399 -423 0
-6 -400 -424 0
-7 -397 -425 0
-7 -398 -426 0
-7 -399 -427 0
-7 -400 -428 0
-8 -397 -429 0
-8 -398 -430 0
-8 -399 -431 0
-8 -400 -432 0
-9 -397 -433 0
-9 -398 -434 0
-9 -399 -435 0
-9 -400 -436 0
-10 -397 -437 0
-10 -398 -438 0
-10 -399 -439 0
-10 -400 -440 0
-11 -397 -441 0
-11 -398 -442 0
-11 -399 -443 0
-11 -400 -444 0
-12 -397 -445 0
-12 -398 -446 0
-12 -399 -447 0
-12 -400 -448 0
-13 -397 -449 0
-13 -398 -450 0
-13 -399 -451 0
-13 -400 -452 0
-14 -397 -453 0
-14 -398 -454 0
-14 -399 -455 0
-14 -400 -456 0
-15 -397 -457 0
-15 -398 -458 0
-15 -399 -459 0
-15 -400 -460 0
-16 -397 -461 0
-16 -398 -462 0
-16 -399 -463 0
-16 -400 -464 0
-17 -397 -465 0
-17 -398 -466 0
-17 -399 -467 0
-17 -400 -468 0
-18 -397 -469 0
-18 -398 -470 0
-18 -399 -471 0
-18 -400 -472 0
-19 -397 -473 0
-19 -398 -474 0
-19 -399 -475 0
-19 -400 -476 0
-20 -397 -477 0
-20 -398 -478 0
-20 -399 -479 0
-20 -400 -480 0
-21 -397 -481 0
-21 -398 -482 0
-21 -399 -483 0
-21 -400 -484 0
-22 -397 -485 0
-22 -398 -486 0
-22 -399 -487 0
-22 -400 -488 0
-23 -397 -489 0
-23 -398 -490 0
-23 -399 -491 0
-23 -400 -492 0
-24 -401 -405 0
-24 -402 -406 0
-24 -403 -407 0
-24 -404 -408 0
-25 -401 -409 0
-25 -402 -410 0
-25 -403 -411 0
-25 -404 -412 0
-26 -401 -413 0
-26 -402 -414 0
-26 -403 -415 0
-26 -404 -416 0
-27 -401 -417 0
-27 -402 -418 0
-27 -403 -419 0
-27 -404 -420 0
-28 -401 -421 0
-28 -402 -422 0
-28 -403 -423 0
-28 -404 -424 0
-29 -401 -425 0
-29 -402 -426 0
-29 -403 -427 0
-29 -404 -428 0
-30 -401 -429 0
-30 -402 -430 0
-30 -403 -431 0
-30 -404 -432 0
-31 -401 -433 0
-31 -402 -434 0
-31 -403 -435 0
-31 -404 -436 0
-32 -401 -437 0
-32 -402 -438 0
-32 -403 -439 0
-32 -404 -440 0
-33 -401 -441 0
-33 -402 -442 0
-33 -403 -443 0
-33 -404 -444 0
-34 -401 -445 0
-34 -402 -446 0
-34 -403 -447 0
-34 -404 -448 0
-35 -401 -449 0
-35 -402 -450 0
-35 -403 -451 0
-35 -404 -452 0
-36 -401 -453 0
-36 -402 -454 0
-36 -403 -455 0
-36 -404 -456 0
-37 -401 -457 0
-37 -402 -458 0
-37 -403 -459 0
-37 -404 -460 0
-38 -401 -461 0
-38 -402 -462 0
-38 -403 -463 0
-38 -404 -464 0
-39 -401 -465 0
-39 -402 -466 0
-39 -403 -467 0
-39 -404 -468 0
-40 -401 -469 0
-40 -402 -470 0
-40 -403 -471 0
-40 -404 -472 0
-41 -401 -473 0
-41 -402 -474 0
-41 -403 -475 0
-41 -404 -476 0
-42 -401 -477 0
-42 -402 -478 0
-42 -403 -479 0
-42 -404 -480 0
-43 -401 -481 0
-43 -402 -482 0
-43 -403 -483 0
-43 -404 -484 0
-44 -401 -485 0
-44 -402 -486 0
-44 -403 -487 0
-44 -404 -488 0
-45 -401 -489 0
-45 -402 -490 0
-45 -403 -491 0
-45 -404 -492 0
-46 -405 -409 0
-46 -406 -410 0
-46 -407 -411 0
-46 -408 -412 0
-47 -405 -413 0
-47 -406 -414 0
-47 -407 -415 0
-47 -408 -416 0
-48 -405 -417 0
-48 -406 -418 0
-48 -407 -419 0
-48 -408 -420 0
-49 -405 -421 0
-49 -406 -422 0
-49 -407 -423 0
-49 -408 -424 0
-50 -405 -425 0
-50 -406 -426 0
-50 -407 -427 0
-50 -408 -428 0
-51 -405 -429 0
-51 -406 -430 0
-51 -407 -431 0
-51 -408 -432 0
-52 -405 -433 0
-52 -406 -434 0
-52 -407 -435 0
-52 -408 -436 0
-53 -405 -437 0
-53 -406 -438 0
-53 -407 -439 0
-53 -408 -440 0
-54 -405 -441 0
-54 -406 -442 0
-54 -407 -443 0
-54 -408 -444 0
-55 -405 -445 0
-55 -406 -446 0
-55 -407 -447 0
-55 -408 -448 0
-56 -405 -449 0
-56 -406 -450 0
-56 -407 -451 0
-56 -408 -452 0
-57 -405 -453 0
-57 -406 -454 0
-57 -407 -455 0
-57 -408 -456 0
-58 -405 -457 0
-58 -406 -458 0
-58 -407 -459 0
-58 -408 -460 0
-59 -405 -461 0
-59 -406 -462 0
-59 -407 -463 0
-59 -408 -464 0
-60 -405 -465 0
-60 -406 -466 0
-60 -407 -467 0
-60 -408 -468 0
-61 -405 -469 0
-61 -406 -470 0
-61 -407 -471 0
-61 -408 -472 0
-62 -405 -473 0
-62 -406 -474 0
-62 -407 -475 0
-62 -408 -476 0
-63 -405 -477 0
-63 -406 -478 0
-63 -407 -479 0
-63 -408 -480 0
-64 -405 -481 0
-64 -406 -482 0
-64 -407 -483 0
-64 -408 -484 0
-65 -405 -485 0
-65 -406 -486 0
-65 -407 -487 0
-65 -408 -488 0
-66 -405 -489 0
-66 -406 -490 0
-66 -407 -491 0
-66 -408 -492 0
-67 -409 -413 0
-67 -410 -414 0
-67 -411 -415 0
-67 -412 -416 0
-68 -409 -417 0
-68 -410 -418 0
-68 -411 -419 0
-68 -412 -420 0
-69 -409 -421 0
-69 -410 -422 0
-69 -411 -423 0
-69 -412 -424 0
-70 -409 -425 0
-70 -410 -426 0
-70 -411 -427 0
-70 -412 -428 0
-71 -409 -429 0
-71 -410 -430 0
-71 -411 -431 0
-71 -412 -432 0
-72 -409 -433 0
-72 -410 -434 0
-72 -411 -435 0
-72 -412 -436 0
-73 -409 -437 0
-73 -410 -438 0
-73 -411 -439 0
-73 -412 -440 0
-74 -409 -441 0
-74 -410 -442 0
-74 -411 -443 0
-74 -412 -444 0
-75 -409 -445 0
-75 -410 -446 0
-75 -411 -447 0
-75 -412 -448 0
-76 -409 -449 0
-76 -410 -450 0
-76 -411 -451 0
-76 -412 -452 0
-77 -409 -453 0
-77 -410 -454 0
-77 -411 -455 0
-77 -412 -456 0
-78 -409 -457 0
-78 -410 -458 0
-78 -411 -459 0
-78 -412 -460 0
-79 -409 -461 0
-79 -410 -462 0
-79 -411 -463 0
-79 -412 -464 0
-80 -409 -465 0
-80 -410 -466 0
-80 -411 -467 0
-80 -412 -468 0
-81 -409 -469 0
-81 -410 -470 0
-81 -411 -471 0
-81 -412 -472 0
-82 -409 -473 0
-82 -410 -474 0
-82 -411 -475 0
-82 -412 -476 0
-83 -409 -477 0
-83 -410 -478 0
-83 -411 -479 0
-83 -412 -480 0
-84 -409 -481 0
-84 -410 -482 0
-84 -411 -483 0
-84 -412 -484 0
-85 -409 -485 0
-85 -410 -486 0
-85 -411 -487 0
-85 -412 -488 0
-86 -409 -489 0
-86 -410 -490 0
-86 -411 -491 0
-86 -412 -492 0
-87 -413 -417 0
-87 -414 -418 0
-87 -415 -419 0
-87 -416 -420 0
-88 -413 -421 0
-88 -414 -422 0
-88 -415 -423 0
-88 -416 -424 0
-89 -413 -425 0
-89 -414 -426 0
-89 -415 -427 0
-89 -416 -428 0
-90 -413 -429 0
-90 -414 -430 0
-90 -415 -431 0
-90 -416 -432 0
-91 -413 -433 0
-91 -414 -434 0
-91 -415 -435 0
-91 -416 -436 0
-92 -413 -437 0
-92 -414 -438 0
-92 -415 -439 0
-92 -416 -440 0
-93 -413 -441 0
-93 -414 -442 0
-93 -415 -443 0
-93 -416 -444 0
-94 -413 -445 0
-94 -414 -446 0
-94 -415 -447 0
-94 -416 -448 0
-95 -413 -449 0
-95 -414 -450 0
-95 -415 -451 0
-95 -416 -452 0
-96 -413 -453 0
-96 -414 -454 0
-96 -415 -455 0
-96 -416 -456 0
-97 -413 -457 0
-97 -414 -458 0
-97 -415 -459 0
-97 -416 -460 0
-98 -413 -461 0
-98 -414 -462 0
-98 -415 -463 0
-98 -416 -464 0
-99 -413 -465 0
-99 -414 -466 0
-99 -415 -467 0
-99 -416 -468 0
-100 -413 -469 0
-100 -414 -470 0
-100 -415 -471 0
-100 -416 -472 0
-101 -413 -473 0
-101 -414 -474 0
-101 -415 -475 0
-101 -416 -476 0
-102 -413 -477 0
-102 -414 -478 0
-102 -415 -479 0
-102 -416 -480 0
-103 -413 -481 0
-103 -414 -482 0
-103 -415 -483 0
-103 -416 -484 0
-104 -413 -485 0
-104 -414 -486 0
-104 -415 -487 0
-104 -416 -488 0
-105 -413 -489 0
-105 -414 -490 0
-105 -415 -491 0
-105 -416 -492 0
-106 -417 -421 0
-106 -418 -422 0
-106 -419 -423 0
-106 -420 -424 0
-107 -417 -425 0
-107 -418 -426 0
-107 -419 -427 0
-107 -420 -428 0
-108 -417 -429 0
-108 -418 -430 0
-108 -419 -431 0
-108 -420 -432 0
-109 -417 -433 0
-109 -418 -434 0
-109 -419 -435 0
-109 -420 -436 0
-110 -417 -437 0
-110 -418 -438 0
-110 -419 -439 0
-110 -420 -440 0
-111 -417 -441 0
-111 -418 -442 0
-111 -419 -443 0
-111 -420 -444 0
-112 -417 -445 0
-112 -418 -446 0
-112 -419 -447 0
-112 -420 -448 0
-113 -417 -449 0
-113 -418 -450 0
-113 -419 -451 0
-113 -420 -452 0
-114 -417 -453 0
-114 -418 -454 0
-114 -419 -455 0
-114 -420 -456 0
-115 -417 -457 0
-115 -418 -458 0
-115 -419 -459 0
-115 -420 -460 0
-116 -417 -461 0
-116 -418 -462 0
-116 -419 -463 0
-116 -420 -464 0
-117 -417 -465 0
-117 -418 -466 0
-117 -419 -467 0
-117 -420 -468 0
-118 -417 -469 0
-118 -418 -470 0
-118 -419 -471 0
-118 -420 -472 0
-119 -417 -473 0
-119 -418 -474 0
-119 -419 -475 0
-119 -420 -476 0
-120 -417 -477 0
-120 -418 -478 0
-120 -419 -479 0
-120 -420 -480 0
-121 -417 -481 0
-121 -418 -482 0
-121 -419 -483 0
-121 -420 -484 0
-122 -417 -485 0
-122 -418 -486 0
-122 -419 -487 0
-122 -420 -488 0
-123 -417 -489 0
-123 -418 -490 0
-123 -419 -491 0
-123 -420 -492 0
-124 -421 -425 0
-124 -422 -426 0
-124 -423 -427 0
-124 -424 -428 0
-125 -421 -429 0
-125 -422 -430 0
-125 -423 -431 0
-125 -424 -432 0
-126 -421 -433 0
-126 -422 -434 0
-126 -423 -435 0
-126 -424 -436 0
-127 -421 -437 0
-127 -422 -438 0
-127 -423 -439 0
-127 -424 -440 0
-128 -421 -441 0
-128 -422 -442 0
-128 -423 -443 0
-128 -424 -444 0
-129 -421 -445 0
-129 -422 -446 0
-129 -423 -447 0
-129 -424 -448 0
-130 -421 -449 0
-130 -422 -450 0
-130 -423 -451 0
-130 -424 -452 0
-131 -421 -453 0
-131 -422 -454 0
-131 -423 -455 0
-131 -424 -456 0
-132 -421 -457 0
-132 -422 -458 0
-132 -423 -459 0
-132 -424 -460 0
-133 -421 -461 0
-133 -422 -462 0
-133 -423 -463 0
-133 -424 -464 0
-134 -421 -465 0
-134 -422 -466 0
-134 -423 -467 0
-134 -424 -468 0
-135 -421 -469 0
-135 -422 -470 0
-135 -423 -471 0
-135 -424 -472 0
-136 -421 -473 0
-136 -422 -474 0
-136 -423 -475 0
-136 -424 -476 0
-137 -421 -477 0
-137 -422 -478 0
-137 -423 -479 0
-137 -424 -480 0
-138 -421 -481 0
-138 -422 -482 0
-138 -423 -483 0
-138 -424 -484 0
-139 -421 -485 0
-139 -422 -486 0
-139 -423 -487 0
-139 -424 -488 0
-140 -421 -489 0
-140 -422 -490 0
-140 -423 -491 0
-140 -424 -492 0
-141 -425 -429 0
-141 -426 -430 0
-141 -427 -431 0
-141 -428 -432 0
-142 -425 -433 0
-142 -426 -434 0
-142 -427 -435 0
-142 -428 -436 0
-143 -425 -437 0
-143 -426 -438 0
-143 -427 -439 0
-143 -428 -440 0
-144 -425 -441 0
-144 -426 -442 0
-144 -427 -443 0
-144 -428 -444 0
-145 -425 -445 0
-145 -426 -446 0
-145 -427 -447 0
-145 -428 -448 0
-146 -425 -449 0
-146 -426 -450 0
-146 -427 -451 0
-146 -428 -452 0
-147 -425 -453 0
-147 -426 -454 0
-147 -427 -455 0
-147 -428 -456 0
-148 -425 -457 0
-148 -426 -458 0
-148 -427 -459 0
-148 -428 -460 0
-149 -425 -461 0
-149 -426 -462 0
-149 -427 -463 0
-149 -428 -464 0
-150 -425 -465 0
-150 -426 -466 0
-150 -427 -467 0
-150 -428 -468 0
-151 -425 -469 0
-151 -426 -470 0
-151 -427 -471 0
-151 -428 -472 0
-152 -425 -473 0
-152 -426 -474 0
-152 -427 -475 0
-152 -428 -476 0
-153 -425 -477 0
-153 -426 -478 0
-153 -427 -479 0
-153 -428 -480 0
-154 -425 -481 0
-154 -426 -482 0
-154 -427 -483 0
-154 -428 -484 0
-155 -425 -485 0
-155 -426 -486 0
-155 -427 -487 0
-155 -428 -488 0
-156 -425 -489 0
-156 -426 -490 0
-156 -427 -491 0
-156 -428 -492 0
-157 -429 -433 0
-157 -430 -434 0
-157 -431 -435 0
-157 -432 -436 0
-158 -429 -437 0
-158 -430 -438 0
-158 -431 -439 0
-158 -432 -440 0
-159 -429 -441 0
-159 -430 -442 0
-159 -431 -443 0
-159 -432 -444 0
-160 -429 -445 0
-160 -430 -446 0
-160 -431 -447 0
-160 -432 -448 0
-161 -429 -449 0
-161 -430 -450 0
-161 -431 -451 0
-161 -432 -452 0
-162 -429 -453 0
-162 -430 -454 0
-162 -431 -455 0
-162 -432 -456 0
-163 -429 -457 0
-163 -430 -458 0
-163 -431 -459 0
-163 -432 -460 0
-164 -429 -461 0
-164 -430 -462 0
-164 -431 -463 0
-164 -432 -464 0
-165 -429 -465 0
-165 -430 -466 0
-165 -431 -467 0
-165 -432 -468 0
-166 -429 -469 0
-166 -430 -470 0
-166 -431 -471 0
-166 -432 -472 0
-167 -429 -473 0
-167 -430 -474 0
-167 -431 -475 0
-167 -432 -476 0
-168 -429 -477 0
-168 -430 -478 0
-168 -431 -479 0
-168 -432 -480 0
-169 -429 -481 0
-169 -430 -482 0
-169 -431 -483 0
-169 -432 -484 0
-170 -429 -485 0
-170 -430 -486 0
-170 -431 -487 0
-170 -432 -488 0
-171 -429 -489 0
-171 -430 -490 0
-171 -431 -491 0
-171 -432 -492 0
-172 -433 -437 0
-172 -434 -438 0
-172 -435 -439 0
-172 -436 -440 0
-173 -433 -441 0
-173 -434 -442 0
-173 -435 -443 0
-173 -436 -444 0
-174 -433 -445 0
-174 -434 -446 0
-174 -435 -447 0
-174 -436 -448 0
-175 -433 -449 0
-175 -434 -450 0
-175 -435 -451 0
-175 -436 -452 0
-176 -433 -453 0
-176 -434 -454 0
-176 -435 -455 0
-176 -436 -456 0
-177 -433 -457 0
-177 -434 -458 0
-177 -435 -459 0
-177 -436 -460 0
-178 -433 -461 0
-178 -434 -462 0
-178 -435 -463 0
-178 -436 -464 0
-179 -433 -465 0
-179 -434 -466 0
-179 -435 -467 0
-179 -436 -468 0
-180 -433 -469 0
-180 -434 -470 0
-180 -435 -471 0
-180 -436 -472 0
-181 -433 -473 0
-181 -434 -474 0
-181 -435 -475 0
-181 -436 -476 0
-182 -433 -477 0
-182 -434 -478 0
-182 -435 -479 0
-182 -436 -480 0
-183 -433 -481 0
-183 -434 -482 0
-183 -435 -483 0
-183 -436 -484 0
-184 -433 -485 0
-184 -434 -486 0
-184 -435 -487 0
-184 -436 -488 0
-185 -433 -489 0
-185 -434 -490 0
-185 -435 -491 0
-185 -436 -492 0
-186 -437 -441 0
-186 -438 -442 0
-186 -439 -443 0
-186 -440 -444 0
-187 -437 -445 0
-187 -438 -446 0
-187 -439 -447 0
-187 -440 -448 0
-188 -437 -449 0
-188 -438 -450 0
-188 -439 -451 0
-188 -440 -452 0
-189 -437 -453 0
-189 -438 -454 0
-189 -439 -455 0
-189 -440 -456 0
-190 -437 -457 0
-190 -438 -458 0
-190 -439 -459 0
-190 -440 -460 0
-191 -437 -461 0
-191 -438 -462 0
-191 -439 -463 0
-191 -440 -464 0
-192 -437 -465 0
-192 -438 -466 0
-192 -439 -467 0
-192 -440 -468 0
-193 -437 -469 0
-193 -438 -470 0
-193 -439 -471 0
-193 -440 -472 0
-194 -437 -473 0
-194 -438 -474 0
-194 -439 -475 0
-194 -440 -476 0
-195 -437 -477 0
-195 -438 -478 0
-195 -439 -479 0
-195 -440 -480 0
-196 -437 -481 0
-196 -438 -482 0
-196 -439 -483 0
-196 -440 -484 0
-197 -437 -485 0
-197 -438 -486 0
-197 -439 -487 0
-197 -440 -488 0
-198 -437 -489 0
-198 -438 -490 0
-198 -439 -491 0
-198 -440 -492 0
-199 -441 -445 0
-199 -442 -446 0
-199 -443 -447 0
-199 -444 -448 0
-200 -441 -449 0
-200 -442 -450 0
-200 -443 -451 0
-200 -444 -452 0
-201 -441 -453 0
-201 -442 -454 0
-201 -443 -455 0
-201 -444 -456 0
-202 -441 -457 0
-202 -442 -458 0
-202 -443 -459 0
-202 -444 -460 0
-203 -441 -461 0
-203 -442 -462 0
-203 -443 -463 0
-203 -444 -464 0
-204 -441 -465 0
-204 -442 -466 0
-204 -443 -467 0
-204 -444 -468 0
-205 -441 -469 0
-205 -442 -470 0
-205 -443 -471 0
-205 -444 -472 0
-206 -441 -473 0
-206 -442 -474 0
-206 -443 -475 0
-206 -444 -476 0
-207 -441 -477 0
-207 -442 -478 0
-207 -443 -479 0
-207 -444 -480 0
-208 -441 -481 0
-208 -442 -482 0
-208 -443 -483 0
-208 -444 -484 0
-209 -441 -485 0
-209 -442 -486 0
-209 -443 -487 0
-209 -444 -488 0
-210 -441 -489 0
-210 -442 -490 0
-210 -443 -491 0
-210 -444 -492 0
-211 -445 -449 0
-211 -446 -450 0
-211 -447 -451 0
-211 -448 -452 0
-212 -445 -453 0
-212 -446 -454 0
-212 -447 -455 0
-212 -448 -456 0
-213 -445 -457 0
-213 -446 -458 0
-213 -447 -459 0
-213 -448 -460 0
-214 -445 -461 0
-214 -446 -462 0
-214 -447 -463 0
-214 -448 -464 0
-215 -445 -465 0
-215 -446 -466 0
-215 -447 -467 0
-215 -448 -468 0
-216 -445 -469 0
-216 -446 -470 0
-216 -447 -471 0
-216 -448 -472 0
-217 -445 -473 0
-217 -446 -474 0
-217 -447 -475 0
-217 -448 -476 0
-218 -445 -477 0
-218 -446 -478 0
-218 -447 -479 0
-218 -448 -480 0
-219 -445 -481 0
-219 -446 -482 0
-219 -447 -483 0
-219 -448 -484 0
-220 -445 -485 0
-220 -446 -486 0
-220 -447 -487 0
-220 -448 -488 0
-221 -445 -489 0
-221 -446 -490 0
-221 -447 -491 0
-221 -448 -492 0
-222 -449 -453 0
-222 -450 -454 0
-222 -451 -455 0
-222 -452 -456 0
-223 -449 -457 0
-223 -450 -458 0
-223 -451 -459 0
-223 -452 -460 0
-224 -449 -461 0
-224 -450 -462 0
-224 -451 -463 0
-224 -452 -464 0
-225 -449 -465 0
-225 -450 -466 0
-225 -451 -467 0
-225 -452 -468 0
-226 -449 -469 0
-226 -450 -470 0
-226 -451 -471 0
-226 -452 -472 0
-227 -449 -473 0
-227 -450 -474 0
-227 -451 -475 0
-227 -452 -476 0
-228 -449 -477 0
-228 -450 -478 0
-228 -451 -479 0
-228 -452 -480 0
-229 -449 -481 0
-229 -450 -482 0
-229 -451 -483 0
-229 -452 -484 0
-230 -449 -485 0
-230 -450 -486 0
-230 -451 -487 0
-230 -452 -488 0
-231 -449 -489 0
-231 -450 -490 0
-231 -451 -491 0
-231 -452 -492 0
-232 -453 -457 0
-232 -454 -458 0
-232 -455 -459 0
-232 -456 -460 0
-233 -453 -461 0
-233 -454 -462 0
-233 -455 -463 0
-233 -456 -464 0
-234 -453 -465 0
-234 -454 -466 0
-234 -455 -467 0
-234 -456 -468 0
-235 -453 -469 0
-235 -454 -470 0
-235 -455 -471 0
-235 -456 -472 0
-236 -453 -473 0
-236 -454 -474 0
-236 -455 -475 0
-236 -456 -476 0
-237 -453 -477 0
-237 -454 -478 0
-237 -455 -479 0
-237 -456 -480 0
-238 -453 -481 0
-238 -454 -482 0
-238 -455 -483 0
-238 -456 -484 0
-239 -453 -485 0
-239 -454 -486 0
-239 -455 -487 0
-239 -456 -488 0
-240 -453 -489 0
-240 -454 -490 0
-240 -455 -491 0
-240 -456 -492 0
-241 -457 -461 0
-241 -458 -462 0
-241 -459 -463 0
-241 -460 -464 0
-242 -457 -465 0
-242 -458 -466 0
-242 -459 -467 0
-242 -460 -468 0
-243 -457 -469 0
-243 -458 -470 0
-243 -459 -471 0
-243 -460 -472 0
-244 -457 -473 0
-244 -458 -474 0
-244 -459 -475 0
-244 -460 -476 0
-245 -457 -477 0
-245 -458 -478 0
-245 -459 -479 0
-245 -460 -480 0
-246 -457 -481 0
-246 -458 -482 0
-246 -459 -483 0
-246 -460 -484 0
-247 -457 -485 0
-247 -458 -486 0
-247 -459 -487 0
-247 -460 -488 0
-248 -457 -489 0
-248 -458 -490 0
-248 -459 -491 0
-248 -460 -492 0
-249 -461 -465 0
-249 -462 -466 0
-249 -463 -467 0
-249 -464 -468 0
-250 -461 -469 0
-250 -462 -470 0
-250 -463 -471 0
-250 -464 -472 0
-251 -461 -473 0
-251 -462 -474 0
-251 -463 -475 0
-251 -464 -476 0
-252 -461 -477 0
-252 -462 -478 0
-252 -463 -479 0
-252 -464 -480 0
-253 -461 -481 0
-253 -462 -482 0
-253 -463 -483 0
-253 -464 -484 0
-254 -461 -485 0
-254 -462 -486 0
-254 -463 -487 0
-254 -464 -488 0
-255 -461 -489 0
-255 -462 -490 0
-255 -463 -491 0
-255 -464 -492 0
-256 -465 -469 0
-256 -466 -470 0
-256 -467 -471 0
-256 -468 -472 0
-257 -465 -473 0
-257 -466 -474 0
-257 -467 -475 0
-257 -468 -476 0
-258 -465 -477 0
-258 -466 -478 0
-258 -467 -479 0
-258 -468 -480 0
-259 -465 -481 0
-259 -466 -482 0
-259 -467 -483 0
-259 -468 -484 0
-260 -465 -485 0
-260 -466 -486 0
-260 -467 -487 0
-260 -468 -488 0
-261 -465 -489 0
-261 -466 -490 0
-261 -467 -491 0
-261 -468 -492 0
-262 -469 -473 0
-262 -470 -474 0
-262 -471 -475 0
-262 -472 -476 0
-263 -469 -477 0
-263 -470 -478 0
-263 -471 -479 0
-263 -472 -480 0
-264 -469 -481 0
-264 -470 -482 0
-264 -471 -483 0
-264 -472 -484 0
-265 -469 -485 0
-265 -470 -486 0
-265 -471 -487 0
-265 -472 -488 0
-266 -469 -489 0
-266 -470 -490 0
-266 -471 -491 0
-266 -472 -492 0
-267 -473 -477 0
-267 -474 -478 0
-267 -475 -479 0
-267 -476 -480 0
-268 -473 -481 0
-268 -474 -482 0
-268 -475 -483 0
-268 -476 -484 0
-269 -473 -485 0
-269 -474 -486 0
-269 -475 -487 0
-269 -476 -488 0
-270 -473 -489 0
-270 -474 -490 0
-270 -475 -491 0
-270 -476 -492 0
-271 -477 -481 0
-271 -478 -482 0
-271 -479 -483 0
-271 -480 -484 0
-272 -477 -485 0
-272 -478 -486 0
-272 -479 -487 0
-272 -480 -488 0
-273 -477 -489 0
-273 -478 -490 0
-273 -479 -491 0
-273 -480 -492 0
-274 -481 -485 0
-274 -482 -486 0
-274 -483 -487 0
-274 -484 -488 0
-275 -481 -489 0
-275 -482 -490 0
-275 -483 -491 0
-275 -484 -492 0
-276 -485 -489 0
-276 -486 -490 0
-276 -487 -491 0
-276 -488 -492 0
493 0
-349 373 0
373 -493 494 0
-349 -493 494 0
-494 -350 374 0
374 -494 495 0
-350 -494 495 0
-495 -351 375 0
375 -495 496 0
-351 -495 496 0
-496 -352 376 0
376 -496 497 0
-352 -496 497 0
-497 -353 377 0
377 -497 498 0
-353 -497 498 0
-498 -354 378 0
378 -498 499 0
-354 -498 499 0
-499 -355 379 0
379 -499 500 0
-355 -499 500 0
-500 -356 380 0
380 -500 501 0
-356 -500 501 0
-501 -357 381 0
381 -501 502 0
-357 -501 502 0
-502 -358 382 0
382 -502 503 0
-358 -502 503 0
-503 -359 383 0
383 -503 504 0
-359 -503 504 0
-504 -360 384 0
384 -504 505 0
-360 -504 505 0
-505 -361 385 0
385 -505 506 0
-361 -505 506 0
-506 -362 386 0
386 -506 507 0
-362 -506 507 0
-507 -363 387 0
387 -507 508 0
-363 -507 508 0
-508 -364 388 0
388 -508 509 0
-364 -508 509 0
-509 -365 389 0
389 -509 510 0
-365 -509 510 0
-510 -366 390 0
390 -510 511 0
-366 -510 511 0
-511 -367 391 0
391 -511 512 0
-367 -511 512 0
-512 -368 392 0
392 -512 513 0
-368 -512 513 0
-513 -369 393 0
393 -513 514 0
-369 -513 514 0
-514 -370 394 0
394 -514 515 0
-370 -514 515 0
-515 -371 395 0
395 -515 516 0
-371 -515 516 0
-516 -372 396 0
517 0
-325 349 0
349 -517 518 0
-325 -517 518 0
-518 -326 350 0
350 -518 519 0
-326 -518 519 0
-519 -327 351 0
351 -519 520 0
-327 -519 520 0
-520 -328 352 0
352 -520 521 0
-328 -520 521 0
-521 -329 353 0
353 -521 522 0
-329 -521 522 0
-522 -330 354 0
354 -522 523 0
-330 -522 523 0
-523 -331 355 0
355 -523 524 0
-331 -523 524 0
-524 -332 356 0
356 -524 525 0
-332 -524 525 0
-525 -333 357 0
357 -525 526 0
-333 -525 526 0
-526 -334 358 0
358 -526 527 0
-334 -526 527 0
-527 -335 359 0
359 -527 528 0
-335 -527 528 0
-528 -336 360 0
360 -528 529 0
-336 -528 529 0
-529 -337 361 0
361 -529 530 0
-337 -529 530 0
-530 -338 362 0
362 -530 531 0
-338 -530 531 0
-531 -339 363 0
363 -531 532 0
-339 -531 532 0
-532 -340 364 0
364 -532 533 0
-340 -532 533 0
-533 -341 365 0
365 -533 534 0
-341 -533 534 0
-534 -342 366 0
366 -534 535 0
-342 -534 535 0
-535 -343 367 0
367 -535 536 0
-343 -535 536 0
-536 -344 368 0
368 -536 537 0
-344 -536 537 0
-537 -345 369 0
369 -537 538 0
-345 -537 538 0
-538 -346 370 0
370 -538 539 0
-346 -538 539 0
-539 -347 371 0
371 -539 540 0
-347 -539 540 0
-540 -348 372 0
541 0
-301 325 0
325 -541 542 0
-301 -541 542 0
-542 -302 326 0
326 -542 543 0
-302 -542 543 0
-543 -303 327 0
327 -543 544 0
-303 -543 544 0
-544 -304 328 0
328 -544 545 0
-304 -544 545 0
-545 -305 329 0
329 -545 546 0
-305 -545 546 0
-546 -306 330 0
330 -546 547 0
-306 -546 547 0
-547 -307 331 0
331 -547 548 0
-307 -547 548 0
-548 -308 332 0
332 -548 549 0
-308 -548 549 0
-549 -309 333 0
333 -549 550 0
-309 -549 550 0
-550 -310 334 0
334 -550 551 0
-310 -550 551 0
-551 -311 335 0
335 -551 552 0
-311 -551 552 0
-552 -312 336 0
336 -552 553 0
-312 -552 553 0
-553 -313 337 0
337 -553 554 0
-313 -553 554 0
-554 -314 338 0
338 -554 555 0
-314 -554 555 0
-555 -315 339 0
339 -555 556 0
-315 -555 556 0
-556 -316 340 0
340 -556 557 0
-316 -556 557 0
-557 -317 341 0
341 -557 558 0
-317 -557 558 0
-558 -318 342 0
342 -558 559 0
-318 -558 559 0
-559 -319 343 0
343 -559 560 0
-319 -559 560 0
-560 -320 344 0
344 -560 561 0
-320 -560 561 0
-561 -321 345 0
345 -561 562 0
-321 -561 562 0
-562 -322 346 0
346 -562 563 0
-322 -562 563 0
-563 -323 347 0
347 -563 564 0
-323 -563 564 0
-564 -324 348 0
565 0
-277 301 0
301 -565 566 0
-277 -565 566 0
-566 -278 302 0
302 -566 567 0
-278 -566 567 0
-567 -279 303 0
303 -567 568 0
-279 -567 568 0
-568 -280 304 0
304 -568 569 0
-280 -568 569 0
-569 -281 305 0
305 -569 570 0
-281 -569 570 0
-570 -282 306 0
306 -570 571 0
-282 -570 571 0
-571 -283 307 0
307 -571 572 0
-283 -571 572 0
-572 -284 308 0
308 -572 573 0
-284 -572 573 0
-573 -285 309 0
309 -573 574 0
-285 -573 574 0
-574 -286 310 0
310 -574 575 0
-286 -574 575 0
-575 -287 311 0
311 -575 576 0
-287 -575 576 0
-576 -288 312 0
312 -576 577 0
-288 -576 577 0
-577 -289 313 0
313 -577 578 0
-289 -577 578 0
-578 -290 314 0
314 -578 579 0
-290 -578 579 0
-579 -291 315 0
315 -579 580 0
-291 -579 580 0
-580 -292 316 0
316 -580 581 0
-292 -580 581 0
-581 -293 317 0
317 -581 582 0
-293 -581 582 0
-582 -294 318 0
318 -582 583 0
-294 -582 583 0
-583 -295 319 0
319 -583 584 0
-295 -583 584 0
-584 -296 320 0
320 -584 585 0
-296 -584 585 0
-585 -297 321 0
321 -585 586 0
-297 -585 586 0
-586 -298 322 0
322 -586 587 0
-298 -586 587 0
-587 -299 323 0
323 -587 588 0
-299 -587 588 0
-588 -300 324 0
589 0
-399 400 0
400 -589 590 0
-399 -589 590 0
-590 -403 404 0
404 -590 591 0
-403 -590 591 0
-591 -407 408 0
408 -591 592 0
-407 -591 592 0
-592 -411 412 0
412 -592 593 0
-411 -592 593 0
-593 -415 416 0
416 -593 594 0
-415 -593 594 0
-594 -419 420 0
420 -594 595 0
-419 -594 595 0
-595 -423 424 0
424 -595 596 0
-423 -595 596 0
-596 -427 428 0
428 -596 597 0
-427 -596 597 0
-597 -431 432 0
432 -597 598 0
-431 -597 598 0
-598 -435 436 0
436 -598 599 0
-435 -598 599 0
-599 -439 440 0
440 -599 600 0
-439 -599 600 0
-600 -443 444 0
444 -600 601 0
-443 -600 601 0
-601 -447 448 0
448 -601 602 0
-447 -601 602 0
-602 -451 452 0
452 -602 603 0
-451 -602 603 0
-603 -455 456 0
456 -603 604 0
-455 -603 604 0
-604 -459 460 0
460 -604 605 0
-459 -604 605 0
-605 -463 464 0
464 -605 606 0
-463 -605 606 0
-606 -467 468 0
468 -606 607 0
-467 -606 607 0
-607 -471 472 0
472 -607 608 0
-471 -607 608 0
-608 -475 476 0
476 -608 609 0
-475 -608 609 0
-609 -479 480 0
480 -609 610 0
-479 -609 610 0
-610 -483 484 0
484 -610 611 0
-483 -610 611 0
-611 -487 488 0
488 -611 612 0
-487 -611 612 0
-612 -491 492 0
613 0
-398 399 0
399 -613 614 0
-398 -613 614 0
-614 -402 403 0
403 -614 615 0
-402 -614 615 0
-615 -406 407 0
407 -615 616 0
-406 -615 616 0
-616 -410 411 0
411 -616 617 0
-410 -616 617 0
-617 -414 415 0
415 -617 618 0
-414 -617 618 0
-618 -418 419 0
419 -618 619 0
-418 -618 619 0
-619 -422 423 0
423 -619 620 0
-422 -619 620 0
-620 -426 427 0
427 -620 621 0
-426 -620 621 0
-621 -430 431 0
431 -621 622 0
-430 -621 622 0
-622 -434 435 0
435 -622 623 0
-434 -622 623 0
-623 -438 439 0
439 -623 624 0
-438 -623 624 0
-624 -442 443 0
443 -624 625 0
-442 -624 625 0
-625 -446 447 0
447 -625 626 0
-446 -625 626 0
-626 -450 451 0
451 -626 627 0
-450 -626 627 0
-627 -454 455 0
455 -627 628 0
-454 -627 628 0
-628 -458 459 0
459 -628 629 0
-458 -628 629 0
-629 -462 463 0
463 -629 630 0
-462 -629 630 0
-630 -466 467 0
467 -630 631 0
-466 -630 631 0
-631 -470 471 0
471 -631 632 0
-470 -631 632 0
-632 -474 475 0
475 -632 633 0
-474 -632 633 0
-633 -478 479 0
479 -633 634 0
-478 -633 634 0
-634 -482 483 0
483 -634 635 0
-482 -634 635 0
-635 -486 487 0
487 -635 636 0
-486 -635 636 0
-636 -490 491 0
637 0
-397 398 0
398 -637 638 0
-397 -637 638 0
-638 -401 402 0
402 -638 639 0
-401 -638 639 0
-639 -405 406 0
406 -639 640 0
-405 -639 640 0
-640 -409 410 0
410 -640 641 0
-409 -640 641 0
-641 -413 414 0
414 -641 642 0
-413 -641 642 0
-642 -417 418 0
418 -642 643 0
-417 -642 643 0
-643 -421 422 0
422 -643 644 0
-421 -643 644 0
-644 -425 426 0
426 -644 645 0
-425 -644 645 0
-645 -429 430 0
430 -645 646 0
-429 -645 646 0
-646 -433 434 0
434 -646 647 0
-433 -646 647 0
-647 -437 438 0
438 -647 648 0
-437 -647 648 0
-648 -441 442 0
442 -648 649 0
-441 -648 649 0
-649 -445 446 0
446 -649 650 0
-445 -649 650 0
-650 -449 450 0
450 -650 651 0
-449 -650 651 0
-651 -453 454 0
454 -651 652 0
-453 -651 652 0
-652 -457 458 0
458 -652 653 0
-457 -652 653 0
-653 -461 462 0
462 -653 654 0
-461 -653 654 0
-654 -465 466 0
466 -654 655 0
-465 -654 655 0
-655 -469 470 0
470 -655 656 0
-469 -655 656 0
-656 -473 474 0
474 -656 657 0
-473 -656 657 0
-657 -477 478 0
478 -657 658 0
-477 -657 658 0
-658 -481 482 0
482 -658 659 0
-481 -658 659 0
-659 -485 486 0
486 -659 660 0
-485 -659 660 0
-660 -489 490 0
661 0
-277 278 0
278 -661 662 0
-277 -661 662 0
-662 -278 277 0
277 -662 663 0
-278 -662 663 0
-663 -301 302 0
302 -663 664 0
-301 -663 664 0
-664 -302 301 0
301 -664 665 0
-302 -664 665 0
-665 -325 326 0
326 -665 666 0
-325 -665 666 0
-666 -326 325 0
325 -666 667 0
-326 -666 667 0
-667 -349 350 0
350 -667 668 0
-349 -667 668 0
-668 -350 349 0
349 -668 669 0
-350 -668 669 0
-669 -373 374 0
374 -669 670 0
-373 -669 670 0
-670 -374 373 0
373 -670 671 0
-374 -670 671 0
-671 -397 401 0
401 -671 672 0
-397 -671 672 0
-672 -401 397 0
397 -672 673 0
-401 -672 673 0
-673 -398 402 0
402 -673 674 0
-398 -673 674 0
-674 -402 398 0
398 -674 675 0
-402 -674 675 0
-675 -399 403 0
403 -675 676 0
-399 -675 676 0
-676 -403 399 0
399 -676 677 0
-403 -676 677 0
-677 -400 404 0
404 -677 678 0
-400 -677 678 0
-678 -404 400 0
400 -678 679 0
-404 -678 679 0
-679 -2 24 0
24 -679 680 0
-2 -679 680 0
-680 -3 25 0
25 -680 681 0
-3 -680 681 0
-681 -4 26 0
26 -681 682 0
-4 -681 682 0
-682 -5 27 0
27 -682 683 0
-5 -682 683 0
-683 -6 28 0
28 -683 684 0
-6 -683 684 0
-684 -7 29 0
29 -684 685 0
-7 -684 685 0
-685 -8 30 0
30 -685 686 0
-8 -685 686 0
-686 -9 31 0
31 -686 687 0
-9 -686 687 0
-687 -10 32 0
32 -687 688 0
-10 -687 688 0
-688 -11 33 0
33 -688 689 0
-11 -688 689 0
-689 -12 34 0
34 -689 690 0
-12 -689 690 0
-690 -13 35 0
35 -690 691 0
-13 -690 691 0
-691 -14 36 0
692 0
-278 279 0
279 -692 693 0
-278 -692 693 0
-693 -279 278 0
278 -693 694 0
-279 -693 694 0
-694 -302 303 0
303 -694 695 0
-302 -694 695 0
-695 -303 302 0
302 -695 696 0
-303 -695 696 0
-696 -326 327 0
327 -696 697 0
-326 -696 697 0
-697 -327 326 0
326 -697 698 0
-327 -697 698 0
-698 -350 351 0
351 -698 699 0
-350 -698 699 0
-699 -351 350 0
350 -699 700 0
-351 -699 700 0
-700 -374 375 0
375 -700 701 0
-374 -700 701 0
-701 -375 374 0
374 -701 702 0
-375 -701 702 0
-702 -401 405 0
405 -702 703 0
-401 -702 703 0
-703 -405 401 0
401 -703 704 0
-405 -703 704 0
-704 -402 406 0
406 -704 705 0
-402 -704 705 0
-705 -406 402 0
402 -705 706 0
-406 -705 706 0
-706 -403 407 0
407 -706 707 0
-403 -706 707 0
-707 -407 403 0
403 -707 708 0
-407 -707 708 0
-708 -404 408 0
408 -708 709 0
-404 -708 709 0
-709 -408 404 0
404 -709 710 0
-408 -709 710 0
-710 -1 2 0
2 -710 711 0
-1 -710 711 0
-711 -2 1 0
1 -711 712 0
-2 -711 712 0
-712 -25 46 0
46 -712 713 0
-25 -712 713 0
-713 -26 47 0
47 -713 714 0
-26 -713 714 0
-714 -27 48 0
48 -714 715 0
-27 -714 715 0
-715 -28 49 0
49 -715 716 0
-28 -715 716 0
-716 -29 50 0
50 -716 717 0
-29 -716 717 0
-717 -30 51 0
51 -717 718 0
-30 -717 718 0
-718 -31 52 0
52 -718 719 0
-31 -718 719 0
-719 -32 53 0
53 -719 720 0
-32 -719 720 0
-720 -33 54 0
54 -720 721 0
-33 -720 721 0
-721 -34 55 0
55 -721 722 0
-34 -721 722 0
-722 -35 56 0
723 0
-279 280 0
280 -723 724 0
-279 -723 724 0
-724 -280 279 0
279 -724 725 0
-280 -724 725 0
-725 -303 304 0
304 -725 726 0
-303 -725 726 0
-726 -304 303 0
303 -726 727 0
-304 -726 727 0
-727 -327 328 0
328 -727 728 0
-327 -727 728 0
-728 -328 327 0
327 -728 729 0
-328 -728 729 0
-729 -351 352 0
352 -729 730 0
-351 -729 730 0
-730 -352 351 0
351 -730 731 0
-352 -730 731 0
-731 -375 376 0
376 -731 732 0
-375 -731 732 0
-732 -376 375 0
375 -732 733 0
-376 -732 733 0
-733 -405 409 0
409 -733 734 0
-405 -733 734 0
-734 -409 405 0
405 -734 735 0
-409 -734 735 0
-735 -406 410 0
410 -735 736 0
-406 -735 736 0
-736 -410 406 0
406 -736 737 0
-410 -736 737 0
-737 -407 411 0
411 -737 738 0
-407 -737 738 0
-738 -411 407 0
407 -738 739 0
-411 -738 739 0
-739 -408 412 0
412 -739 740 0
-408 -739 740 0
-740 -412 408 0
408 -740 741 0
-412 -740 741 0
-741 -2 3 0
3 -741 742 0
-2 -741 742 0
-742 -3 2 0
2 -742 743 0
-3 -742 743 0
-743 -24 25 0
25 -743 744 0
-24 -743 744 0
-744 -25 24 0
24 -744 745 0
-25 -744 745 0
-745 -47 67 0
67 -745 746 0
-47 -745 746 0
-746 -48 68 0
68 -746 747 0
-48 -746 747 0
-747 -49 69 0
69 -747 748 0
-49 -747 748 0
-748 -50 70 0
70 -748 749 0
-50 -748 749 0
-749 -51 71 0
71 -749 750 0
-51 -749 750 0
-750 -52 72 0
72 -750 751 0
-52 -750 751 0
-751 -53 73 0
73 -751 752 0
-53 -751 752 0
-752 -54 74 0
74 -752 753 0
-54 -752 753 0
-753 -55 75 0
754 0
-280 281 0
281 -754 755 0
-280 -754 755 0
-755 -281 280 0
280 -755 756 0
-281 -755 756 0
-756 -304 305 0
305 -756 757 0
-304 -756 757 0
-757 -305 304 0
304 -757 758 0
-305 -757 758 0
-758 -328 329 0
329 -758 759 0
-328 -758 759 0
-759 -329 328 0
328 -759 760 0
-329 -759 760 0
-760 -352 353 0
353 -760 761 0
-352 -760 761 0
-761 -353 352 0
352 -761 762 0
-353 -761 762 0
-762 -376 377 0
377 -762 763 0
-376 -762 763 0
-763 -377 376 0
376 -763 764 0
-377 -763 764 0
-764 -409 413 0
413 -764 765 0
-409 -764 765 0
-765 -413 409 0
409 -765 766 0
-413 -765 766 0
-766 -410 414 0
414 -766 767 0
-410 -766 767 0
-767 -414 410 0
410 -767 768 0
-414 -767 768 0
-768 -411 415 0
415 -768 769 0
-411 -768 769 0
-769 -415 411 0
411 -769 770 0
-415 -769 770 0
-770 -412 416 0
416 -770 771 0
-412 -770 771 0
-771 -416 412 0
412 -771 772 0
-416 -771 772 0
-772 -3 4 0
4 -772 773 0
-3 -772 773 0
-773 -4 3 0
3 -773 774 0
-4 -773 774 0
-774 -25 26 0
26 -774 775 0
-25 -774 775 0
-775 -26 25 0
25 -775 776 0
-26 -775 776 0
-776 -46 47 0
47 -776 777 0
-46 -776 777 0
-777 -47 46 0
46 -777 778 0
-47 -777 778 0
-778 -68 87 0
87 -778 779 0
-68 -778 779 0
-779 -69 88 0
88 -779 780 0
-69 -779 780 0
-780 -70 89 0
89 -780 781 0
-70 -780 781 0
-781 -71 90 0
90 -781 782 0
-71 -781 782 0
-782 -72 91 0
91 -782 783 0
-72 -782 783 0
-783 -73 92 0
92 -783 784 0
-73 -783 784 0
-784 -74 93 0
785 0
-281 282 0
282 -785 786 0
-281 -785 786 0
-786 -282 281 0
281 -786 787 0
-282 -786 787 0
-787 -305 306 0
306 -787 788 0
-305 -787 788 0
-788 -306 305 0
305 -788 789 0
-306 -788 789 0
-789 -329 330 0
330 -789 790 0
-329 -789 790 0
-790 -330 329 0
329 -790 791 0
-330 -790 791 0
-791 -353 354 0
354 -791 792 0
-353 -791 792 0
-792 -354 353 0
353 -792 793 0
-354 -792 793 0
-793 -377 378 0
378 -793 794 0
-377 -793 794 0
-794 -378 377 0
377 -794 795 0
-378 -794 795 0
-795 -413 417 0
417 -795 796 0
-413 -795 796 0
-796 -417 413 0
413 -796 797 0
-417 -796 797 0
-797 -414 418 0
418 -797 798 0
-414 -797 798 0
-798 -418 414 0
414 -798 799 0
-418 -798 799 0
-799 -415 419 0
419 -799 800 0
-415 -799 800 0
-800 -419 415 0
415 -800 801 0
-419 -800 801 0
-801 -416 420 0
420 -801 802 0
-416 -801 802 0
-802 -420 416 0
416 -802 803 0
-420 -802 803 0
-803 -4 5 0
5 -803 804 0
-4 -803 804 0
-804 -5 4 0
4 -804 805 0
-5 -804 805 0
-805 -26 27 0
27 -805 806 0
-26 -805 806 0
-806 -27 26 0
26 -806 807 0
-27 -806 807 0
-807 -47 48 0
48 -807 808 0
-47 -807 808 0
-808 -48 47 0
47 -808 809 0
-48 -808 809 0
-809 -67 68 0
68 -809 810 0
-67 -809 810 0
-810 -68 67 0
67 -810 811 0
-68 -810 811 0
-811 -88 106 0
106 -811 812 0
-88 -811 812 0
-812 -89 107 0
107 -812 813 0
-89 -812 813 0
-813 -90 108 0
108 -813 814 0
-90 -813 814 0
-814 -91 109 0
109 -814 815 0
-91 -814 815 0
-815 -92 110 0
816 0
-282 283 0
283 -816 817 0
-282 -816 817 0
-817 -283 282 0
282 -817 818 0
-283 -817 818 0
-818 -306 307 0
307 -818 819 0
-306 -818 819 0
-819 -307 306 0
306 -819 820 0
-307 -819 820 0
-820 -330 331 0
331 -820 821 0
-330 -820 821 0
-821 -331 330 0
330 -821 822 0
-331 -821 822 0
-822 -354 355 0
355 -822 823 0
-354 -822 823 0
-823 -355 354 0
354 -823 824 0
-355 -823 824 0
-824 -378 379 0
379 -824 825 0
-378 -824 825 0
-825 -379 378 0
378 -825 826 0
-379 -825 826 0
-826 -417 421 0
421 -826 827 0
-417 -826 827 0
-827 -421 417 0
417 -827 828 0
-421 -827 828 0
-828 -418 422 0
422 -828 829 0
-418 -828 829 0
-829 -422 418 0
418 -829 830 0
-422 -829 830 0
-830 -419 423 0
423 -830 831 0
-419 -830 831 0
-831 -423 419 0
419 -831 832 0
-423 -831 832 0
-832 -420 424 0
424 -832 833 0
-420 -832 833 0
-833 -424 420 0
420 -833 834 0
-424 -833 834 0
-834 -5 6 0
6 -834 835 0
-5 -834 835 0
-835 -6 5 0
5 -835 836 0
-6 -835 836 0
-836 -27 28 0
28 -836 837 0
-27 -836 837 0
-837 -28 27 0
27 -837 838 0
-28 -837 838 0
-838 -48 49 0
49 -838 839 0
-48 -838 839 0
-839 -49 48 0
48 -839 840 0
-49 -839 840 0
-840 -68 69 0
69 -840 841 0
-68 -840 841 0
-841 -69 68 0
68 -841 842 0
-69 -841 842 0
-842 -87 88 0
88 -842 843 0
-87 -842 843 0
-843 -88 87 0
87 -843 844 0
-88 -843 844 0
-844 -107 124 0
124 -844 845 0
-107 -844 845 0
-845 -108 125 0
125 -845 846 0
-108 -845 846 0
-846 -109 126 0
847 0
-283 284 0
284 -847 848 0
-283 -847 848 0
-848 -284 283 0
283 -848 849 0
-284 -848 849 0
-849 -307 308 0
308 -849 850 0
-307 -849 850 0
-850 -308 307 0
307 -850 851 0
-308 -850 851 0
-851 -331 332 0
332 -851 852 0
-331 -851 852 0
-852 -332 331 0
331 -852 853 0
-332 -852 853 0
-853 -355 356 0
356 -853 854 0
-355 -853 854 0
-854 -356 355 0
355 -854 855 0
-356 -854 855 0
-855 -379 380 0
380 -855 856 0
-379 -855 856 0
-856 -380 379 0
379 -856 857 0
-380 -856 857 0
-857 -421 425 0
425 -857 858 0
-421 -857 858 0
-858 -425 421 0
421 -858 859 0
-425 -858 859 0
-859 -422 426 0
426 -859 860 0
-422 -859 860 0
-860 -426 422 0
422 -860 861 0
-426 -860 861 0
-861 -423 427 0
427 -861 862 0
-423 -861 862 0
-862 -427 423 0
423 -862 863 0
-427 -862 863 0
-863 -424 428 0
428 -863 864 0
-424 -863 864 0
-864 -428 424 0
424 -864 865 0
-428 -864 865 0
-865 -6 7 0
7 -865 866 0
-6 -865 866 0
-866 -7 6 0
6 -866 867 0
-7 -866 867 0
-867 -28 29 0
29 -867 868 0
-28 -867 868 0
-868 -29 28 0
28 -868 869 0
-29 -868 869 0
-869 -49 50 0
50 -869 870 0
-49 -869 870 0
-870 -50 49 0
49 -870 871 0
-50 -870 871 0
-871 -69 70 0
70 -871 872 0
-69 -871 872 0
-872 -70 69 0
69 -872 873 0
-70 -872 873 0
-873 -88 89 0
89 -873 874 0
-88 -873 874 0
-874 -89 88 0
88 -874 875 0
-89 -874 875 0
-875 -106 107 0
107 -875 876 0
-106 -875 876 0
-876 -107 106 0
106 -876 877 0
-107 -876 877 0
-877 -125 141 0
878 0
-284 285 0
285 -878 879 0
-284 -878 879 0
-879 -285 284 0
284 -879 880 0
-285 -879 880 0
-880 -308 309 0
309 -880 881 0
-308 -880 881 0
-881 -309 308 0
308 -881 882 0
-309 -881 882 0
-882 -332 333 0
333 -882 883 0
-332 -882 883 0
-883 -333 332 0
332 -883 884 0
-333 -883 884 0
-884 -356 357 0
357 -884 885 0
-356 -884 885 0
-885 -357 356 0
356 -885 886 0
-357 -885 886 0
-886 -380 381 0
381 -886 887 0
-380 -886 887 0
-887 -381 380 0
380 -887 888 0
-381 -887 888 0
-888 -425 429 0
429 -888 889 0
-425 -888 889 0
-889 -429 425 0
425 -889 890 0
-429 -889 890 0
-890 -426 430 0
430 -890 891 0
-426 -890 891 0
-891 -430 426 0
426 -891 892 0
-430 -891 892 0
-892 -427 431 0
431 -892 893 0
-427 -892 893 0
-893 -431 427 0
427 -893 894 0
-431 -893 894 0
-894 -428 432 0
432 -894 895 0
-428 -894 895 0
-895 -432 428 0
428 -895 896 0
-432 -895 896 0
-896 -7 8 0
8 -896 897 0
-7 -896 897 0
-897 -8 7 0
7 -897 898 0
-8 -897 898 0
-898 -29 30 0
30 -898 899 0
-29 -898 899 0
-899 -30 29 0
29 -899 900 0
-30 -899 900 0
-900 -50 51 0
51 -900 901 0
-50 -900 901 0
-901 -51 50 0
50 -901 902 0
-51 -901 902 0
-902 -70 71 0
71 -902 903 0
-70 -902 903 0
-903 -71 70 0
70 -903 904 0
-71 -903 904 0
-904 -89 90 0
90 -904 905 0
-89 -904 905 0
-905 -90 89 0
89 -905 906 0
-90 -905 906 0
-906 -107 108 0
108 -906 907 0
-107 -906 907 0
-907 -108 107 0
107 -907 908 0
-108 -907 908 0
-908 -124 125 0
909 0
-285 286 0
286 -909 910 0
-285 -909 910 0
-910 -286 285 0
285 -910 911 0
-286 -910 911 0
-911 -309 310 0
310 -911 912 0
-309 -911 912 0
-912 -310 309 0
309 -912 913 0
-310 -912 913 0
-913 -333 334 0
334 -913 914 0
-333 -913 914 0
-914 -334 333 0
333 -914 915 0
-334 -914 915 0
-915 -357 358 0
358 -915 916 0
-357 -915 916 0
-916 -358 357 0
357 -916 917 0
-358 -916 917 0
-917 -381 382 0
382 -917 918 0
-381 -917 918 0
-918 -382 381 0
381 -918 919 0
-382 -918 919 0
-919 -429 433 0
433 -919 920 0
-429 -919 920 0
-920 -433 429 0
429 -920 921 0
-433 -920 921 0
-921 -430 434 0
434 -921 922 0
-430 -921 922 0
-922 -434 430 0
430 -922 923 0
-434 -922 923 0
-923 -431 435 0
435 -923 924 0
-431 -923 924 0
-924 -435 431 0
431 -924 925 0
-435 -924 925 0
-925 -432 436 0
436 -925 926 0
-432 -925 926 0
-926 -436 432 0
432 -926 927 0
-436 -926 927 0
-927 -8 9 0
9 -927 928 0
-8 -927 928 0
-928 -9 8 0
8 -928 929 0
-9 -928 929 0
-929 -30 31 0
31 -929 930 0
-30 -929 930 0
-930 -31 30 0
30 -930 931 0
-31 -930 931 0
-931 -51 52 0
52 -931 932 0
-51 -931 932 0
-932 -52 51 0
51 -932 933 0
-52 -932 933 0
-933 -71 72 0
72 -933 934 0
-71 -933 934 0
-934 -72 71 0
71 -934 935 0
-72 -934 935 0
-935 -90 91 0
91 -935 936 0
-90 -935 936 0
-936 -91 90 0
90 -936 937 0
-91 -936 937 0
-937 -108 109 0
109 -937 938 0
-108 -937 938 0
-938 -109 108 0
108 -938 939 0
-109 -938 939 0
-939 -125 126 0
940 0
-286 287 0
287 -940 941 0
-286 -940 941 0
-941 -287 286 0
286 -941 942 0
-287 -941 942 0
-942 -310 311 0
311 -942 943 0
-310 -942 943 0
-943 -311 310 0
310 -943 944 0
-311 -943 944 0
-944 -334 335 0
335 -944 945 0
-334 -944 945 0
-945 -335 334 0
334 -945 946 0
-335 -945 946 0
-946 -358 359 0
359 -946 947 0
-358 -946 947 0
-947 -359 358 0
358 -947 948 0
-359 -947 948 0
-948 -382 383 0
383 -948 949 0
-382 -948 949 0
-949 -383 382 0
382 -949 950 0
-383 -949 950 0
-950 -433 437 0
437 -950 951 0
-433 -950 951 0
-951 -437 433 0
433 -951 952 0
-437 -951 952 0
-952 -434 438 0
438 -952 953 0
-434 -952 953 0
-953 -438 434 0
434 -953 954 0
-438 -953 954 0
-954 -435 439 0
439 -954 955 0
-435 -954 955 0
-955 -439 435 0
435 -955 956 0
-439 -955 956 0
-956 -436 440 0
440 -956 957 0
-436 -956 957 0
-957 -440 436 0
436 -957 958 0
-440 -957 958 0
-958 -9 10 0
10 -958 959 0
-9 -958 959 0
-959 -10 9 0
9 -959 960 0
-10 -959 960 0
-960 -31 32 0
32 -960 961 0
-31 -960 961 0
-961 -32 31 0
31 -961 962 0
-32 -961 962 0
-962 -52 53 0
53 -962 963 0
-52 -962 963 0
-963 -53 52 0
52 -963 964 0
-53 -963 964 0
-964 -72 73 0
73 -964 965 0
-72 -964 965 0
-965 -73 72 0
72 -965 966 0
-73 -965 966 0
-966 -91 92 0
92 -966 967 0
-91 -966 967 0
-967 -92 91 0
91 -967 968 0
-92 -967 968 0
-968 -109 110 0
110 -968 969 0
-109 -968 969 0
-969 -110 109 0
109 -969 970 0
-110 -969 970 0
-970 -126 127 0
971 0
-287 288 0
288 -971 972 0
-287 -971 972 0
-972 -288 287 0
287 -972 973 0
-288 -972 973 0
-973 -311 312 0
312 -973 974 0
-311 -973 974 0
-974 -312 311 0
311 -974 975 0
-312 -974 975 0
-975 -335 336 0
336 -975 976 0
-335 -975 976 0
-976 -336 335 0
335 -976 977 0
-336 -976 977 0
-977 -359 360 0
360 -977 978 0
-359 -977 978 0
-978 -360 359 0
359 -978 979 0
-360 -978 979 0
-979 -383 384 0
384 -979 980 0
-383 -979 980 0
-980 -384 383 0
383 -980 981 0
-384 -980 981 0
-981 -437 441 0
441 -981 982 0
-437 -981 982 0
-982 -441 437 0
437 -982 983 0
-441 -982 983 0
-983 -438 442 0
442 -983 984 0
-438 -983 984 0
-984 -442 438 0
438 -984 985 0
-442 -984 985 0
-985 -439 443 0
443 -985 986 0
-439 -985 986 0
-986 -443 439 0
439 -986 987 0
-443 -986 987 0
-987 -440 444 0
444 -987 988 0
-440 -987 988 0
-988 -444 440 0
440 -988 989 0
-444 -988 989 0
-989 -10 11 0
11 -989 990 0
-10 -989 990 0
-990 -11 10 0
10 -990 991 0
-11 -990 991 0
-991 -32 33 0
33 -991 992 0
-32 -991 992 0
-992 -33 32 0
32 -992 993 0
-33 -992 993 0
-993 -53 54 0
54 -993 994 0
-53 -993 994 0
-994 -54 53 0
53 -994 995 0
-54 -994 995 0
-995 -73 74 0
74 -995 996 0
-73 -995 996 0
-996 -74 73 0
73 -996 997 0
-74 -996 997 0
-997 -92 93 0
93 -997 998 0
-92 -997 998 0
-998 -93 92 0
92 -998 999 0
-93 -998 999 0
-999 -110 111 0
111 -999 1000 0
-110 -999 1000 0
-1000 -111 110 0
110 -1000 1001 0
-111 -1000 1001 0
-1001 -127 128 0
1002 0
-288 289 0
289 -1002 1003 0
-288 -1002 1003 0
-1003 -289 288 0
288 -1003 1004 0
-289 -1003 1004 0
-1004 -312 313 0
313 -1004 1005 0
-312 -1004 1005 0
-1005 -313 312 0
312 -1005 1006 0
-313 -1005 1006 0
-1006 -336 337 0
337 -1006 1007 0
-336 -1006 1007 0
-1007 -337 336 0
336 -1007 1008 0
-337 -1007 1008 0
-1008 -360 361 0
361 -1008 1009 0
-360 -1008 1009 0
-1009 -361 360 0
360 -1009 1010 0
-361 -1009 1010 0
-1010 -384 385 0
385 -1010 1011 0
-384 -1010 1011 0
-1011 -385 384 0
384 -1011 1012 0
-385 -1011 1012 0
-1012 -441 445 0
445 -1012 1013 0
-441 -1012 1013 0
-1013 -445 441 0
441 -1013 1014 0
-445 -1013 1014 0
-1014 -442 446 0
446 -1014 1015 0
-442 -1014 1015 0
-1015 -446 442 0
442 -1015 1016 0
-446 -1015 1016 0
-1016 -443 447 0
447 -1016 1017 0
-443 -1016 1017 0
-1017 -447 443 0
443 -1017 1018 0
-447 -1017 1018 0
-1018 -444 448 0
448 -1018 1019 0
-444 -1018 1019 0
-1019 -448 444 0
444 -1019 1020 0
-448 -1019 1020 0
-1020 -11 12 0
12 -1020 1021 0
-11 -1020 1021 0
-1021 -12 11 0
11 -1021 1022 0
-12 -1021 1022 0
-1022 -33 34 0
34 -1022 1023 0
-33 -1022 1023 0
-1023 -34 33 0
33 -1023 1024 0
-34 -1023 1024 0
-1024 -54 55 0
55 -1024 1025 0
-54 -1024 1025 0
-1025 -55 54 0
54 -1025 1026 0
-55 -1025 1026 0
-1026 -74 75 0
75 -1026 1027 0
-74 -1026 1027 0
-1027 -75 74 0
74 -1027 1028 0
-75 -1027 1028 0
-1028 -93 94 0
94 -1028 1029 0
-93 -1028 1029 0
-1029 -94 93 0
93 -1029 1030 0
-94 -1029 1030 0
-1030 -111 112 0
112 -1030 1031 0
-111 -1030 1031 0
-1031 -112 111 0
111 -1031 1032 0
-112 -1031 1032 0
-1032 -128 129 0
1033 0
-289 290 0
290 -1033 1034 0
-289 -1033 1034 0
-1034 -290 289 0
289 -1034 1035 0
-290 -1034 1035 0
-1035 -313 314 0
314 -1035 1036 0
-313 -1035 1036 0
-1036 -314 313 0
313 -1036 1037 0
-314 -1036 1037 0
-1037 -337 338 0
338 -1037 1038 0
-337 -1037 1038 0
-1038 -338 337 0
337 -1038 1039 0
-338 -1038 1039 0
-1039 -361 362 0
362 -1039 1040 0
-361 -1039 1040 0
-1040 -362 361 0
361 -1040 1041 0
-362 -1040 1041 0
-1041 -385 386 0
386 -1041 1042 0
-385 -1041 1042 0
-1042 -386 385 0
385 -1042 1043 0
-386 -1042 1043 0
-1043 -445 449 0
449 -1043 1044 0
-445 -1043 1044 0
-1044 -449 445 0
445 -1044 1045 0
-449 -1044 1045 0
-1045 -446 450 0
450 -1045 1046 0
-446 -1045 1046 0
-1046 -450 446 0
446 -1046 1047 0
-450 -1046 1047 0
-1047 -447 451 0
451 -1047 1048 0
-447 -1047 1048 0
-1048 -451 447 0
447 -1048 1049 0
-451 -1048 1049 0
-1049 -448 452 0
452 -1049 1050 0
-448 -1049 1050 0
-1050 -452 448 0
448 -1050 1051 0
-452 -1050 1051 0
-1051 -12 13 0
13 -1051 1052 0
-12 -1051 1052 0
-1052 -13 12 0
12 -1052 1053 0
-13 -1052 1053 0
-1053 -34 35 0
35 -1053 1054 0
-34 -1053 1054 0
-1054 -35 34 0
34 -1054 1055 0
-35 -1054 1055 0
-1055 -55 56 0
56 -1055 1056 0
-55 -1055 1056 0
-1056 -56 55 0
55 -1056 1057 0
-56 -1056 1057 0
-1057 -75 76 0
76 -1057 1058 0
-75 -1057 1058 0
-1058 -76 75 0
75 -1058 1059 0
-76 -1058 1059 0
-1059 -94 95 0
95 -1059 1060 0
-94 -1059 1060 0
-1060 -95 94 0
94 -1060 1061 0
-95 -1060 1061 0
-1061 -112 113 0
113 -1061 1062 0
-112 -1061 1062 0
-1062 -113 112 0
112 -1062 1063 0
-113 -1062 1063 0
-1063 -129 130 0
1064 0
-290 291 0
291 -1064 1065 0
-290 -1064 1065 0
-1065 -291 290 0
290 -1065 1066 0
-291 -1065 1066 0
-1066 -314 315 0
315 -1066 1067 0
-314 -1066 1067 0
-1067 -315 314 0
314 -1067 1068 0
-315 -1067 1068 0
-1068 -338 339 0
339 -1068 1069 0
-338 -1068 1069 0
-1069 -339 338 0
338 -1069 1070 0
-339 -1069 1070 0
-1070 -362 363 0
363 -1070 1071 0
-362 -1070 1071 0
-1071 -363 362 0
362 -1071 1072 0
-363 -1071 1072 0
-1072 -386 387 0
387 -1072 1073 0
-386 -1072 1073 0
-1073 -387 386 0
386 -1073 1074 0
-387 -1073 1074 0
-1074 -449 453 0
453 -1074 1075 0
-449 -1074 1075 0
-1075 -453 449 0
449 -1075 1076 0
-453 -1075 1076 0
-1076 -450 454 0
454 -1076 1077 0
-450 -1076 1077 0
-1077 -454 450 0
450 -1077 1078 0
-454 -1077 1078 0
-1078 -451 455 0
455 -1078 1079 0
-451 -1078 1079 0
-1079 -455 451 0
451 -1079 1080 0
-455 -1079 1080 0
-1080 -452 456 0
456 -1080 1081 0
-452 -1080 1081 0
-1081 -456 452 0
452 -1081 1082 0
-456 -1081 1082 0
-1082 -13 14 0
14 -1082 1083 0
-13 -1082 1083 0
-1083 -14 13 0
13 -1083 1084 0
-14 -1083 1084 0
-1084 -35 36 0
36 -1084 1085 0
-35 -1084 1085 0
-1085 -36 35 0
35 -1085 1086 0
-36 -1085 1086 0
-1086 -56 57 0
57 -1086 1087 0
-56 -1086 1087 0
-1087 -57 56 0
56 -1087 1088 0
-57 -1087 1088 0
-1088 -76 77 0
77 -1088 1089 0
-76 -1088 1089 0
-1089 -77 76 0
76 -1089 1090 0
-77 -1089 1090 0
-1090 -95 96 0
96 -1090 1091 0
-95 -1090 1091 0
-1091 -96 95 0
95 -1091 1092 0
-96 -1091 1092 0
-1092 -113 114 0
114 -1092 1093 0
-113 -1092 1093 0
-1093 -114 113 0
113 -1093 1094 0
-114 -1093 1094 0
-1094 -130 131 0
1095 0
-291 292 0
292 -1095 1096 0
-291 -1095 1096 0
-1096 -292 291 0
291 -1096 1097 0
-292 -1096 1097 0
-1097 -315 316 0
316 -1097 1098 0
-315 -1097 1098 0
-1098 -316 315 0
315 -1098 1099 0
-316 -1098 1099 0
-1099 -339 340 0
340 -1099 1100 0
-339 -1099 1100 0
-1100 -340 339 0
339 -1100 1101 0
-340 -1100 1101 0
-1101 -363 364 0
364 -1101 1102 0
-363 -1101 1102 0
-1102 -364 363 0
363 -1102 1103 0
-364 -1102 1103 0
-1103 -387 388 0
388 -1103 1104 0
-387 -1103 1104 0
-1104 -388 387 0
387 -1104 1105 0
-388 -1104 1105 0
-1105 -453 457 0
457 -1105 1106 0
-453 -1105 1106 0
-1106 -457 453 0
453 -1106 1107 0
-457 -1106 1107 0
-1107 -454 458 0
458 -1107 1108 0
-454 -1107 1108 0
-1108 -458 454 0
454 -1108 1109 0
-458 -1108 1109 0
-1109 -455 459 0
459 -1109 1110 0
-455 -1109 1110 0
-1110 -459 455 0
455 -1110 1111 0
-459 -1110 1111 0
-1111 -456 460 0
460 -1111 1112 0
-456 -1111 1112 0
-1112 -460 456 0
456 -1112 1113 0
-460 -1112 1113 0
-1113 -14 15 0
15 -1113 1114 0
-14 -1113 1114 0
-1114 -15 14 0
14 -1114 1115 0
-15 -1114 1115 0
-1115 -36 37 0
37 -1115 1116 0
-36 -1115 1116 0
-1116 -37 36 0
36 -1116 1117 0
-37 -1116 1117 0
-1117 -57 58 0
58 -1117 1118 0
-57 -1117 1118 0
-1118 -58 57 0
57 -1118 1119 0
-58 -1118 1119 0
-1119 -77 78 0
78 -1119 1120 0
-77 -1119 1120 0
-1120 -78 77 0
77 -1120 1121 0
-78 -1120 1121 0
-1121 -96 97 0
97 -1121 1122 0
-96 -1121 1122 0
-1122 -97 96 0
96 -1122 1123 0
-97 -1122 1123 0
-1123 -114 115 0
115 -1123 1124 0
-114 -1123 1124 0
-1124 -115 114 0
114 -1124 1125 0
-115 -1124 1125 0
-1125 -131 132 0
1126 0
-292 293 0
293 -1126 1127 0
-292 -1126 1127 0
-1127 -293 292 0
292 -1127 1128 0
-293 -1127 1128 0
-1128 -316 317 0
317 -1128 1129 0
-316 -1128 1129 0
-1129 -317 316 0
316 -1129 1130 0
-317 -1129 1130 0
-1130 -340 341 0
341 -1130 1131 0
-340 -1130 1131 0
-1131 -341 340 0
340 -1131 1132 0
-341 -1131 1132 0
-1132 -364 365 0
365 -1132 1133 0
-364 -1132 1133 0
-1133 -365 364 0
364 -1133 1134 0
-365 -1133 1134 0
-1134 -388 389 0
389 -1134 1135 0
-388 -1134 1135 0
-1135 -389 388 0
388 -1135 1136 0
-389 -1135 1136 0
-1136 -457 461 0
461 -1136 1137 0
-457 -1136 1137 0
-1137 -461 457 0
457 -1137 1138 0
-461 -1137 1138 0
-1138 -458 462 0
462 -1138 1139 0
-458 -1138 1139 0
-1139 -462 458 0
458 -1139 1140 0
-462 -1139 1140 0
-1140 -459 463 0
463 -1140 1141 0
-459 -1140 1141 0
-1141 -463 459 0
459 -1141 1142 0
-463 -1141 1142 0
-1142 -460 464 0
464 -1142 1143 0
-460 -1142 1143 0
-1143 -464 460 0
460 -1143 1144 0
-464 -1143 1144 0
-1144 -15 16 0
16 -1144 1145 0
-15 -1144 1145 0
-1145 -16 15 0
15 -1145 1146 0
-16 -1145 1146 0
-1146 -37 38 0
38 -1146 1147 0
-37 -1146 1147 0
-1147 -38 37 0
37 -1147 1148 0
-38 -1147 1148 0
-1148 -58 59 0
59 -1148 1149 0
-58 -1148 1149 0
-1149 -59 58 0
58 -1149 1150 0
-59 -1149 1150 0
-1150 -78 79 0
79 -1150 1151 0
-78 -1150 1151 0
-1151 -79 78 0
78 -1151 1152 0
-79 -1151 1152 0
-1152 -97 98 0
98 -1152 1153 0
-97 -1152 1153 0
-1153 -98 97 0
97 -1153 1154 0
-98 -1153 1154 0
-1154 -115 116 0
116 -1154 1155 0
-115 -1154 1155 0
-1155 -116 115 0
115 -1155 1156 0
-116 -1155 1156 0
-1156 -132 133 0
1157 0
-293 294 0
294 -1157 1158 0
-293 -1157 1158 0
-1158 -294 293 0
293 -1158 1159 0
-294 -1158 1159 0
-1159 -317 318 0
318 -1159 1160 0
-317 -1159 1160 0
-1160 -318 317 0
317 -1160 1161 0
-318 -1160 1161 0
-1161 -341 342 0
342 -1161 1162 0
-341 -1161 1162 0
-1162 -342 341 0
341 -1162 1163 0
-342 -1162 1163 0
-1163 -365 366 0
366 -1163 1164 0
-365 -1163 1164 0
-1164 -366 365 0
365 -1164 1165 0
-366 -1164 1165 0
-1165 -389 390 0
390 -1165 1166 0
-389 -1165 1166 0
-1166 -390 389 0
389 -1166 1167 0
-390 -1166 1167 0
-1167 -461 465 0
465 -1167 1168 0
-461 -1167 1168 0
-1168 -465 461 0
461 -1168 1169 0
-465 -1168 1169 0
-1169 -462 466 0
466 -1169 1170 0
-462 -1169 1170 0
-1170 -466 462 0
462 -1170 1171 0
-466 -1170 1171 0
-1171 -463 467 0
467 -1171 1172 0
-463 -1171 1172 0
-1172 -467 463 0
463 -1172 1173 0
-467 -1172 1173 0
-1173 -464 468 0
468 -1173 1174 0
-464 -1173 1174 0
-1174 -468 464 0
464 -1174 1175 0
-468 -1174 1175 0
-1175 -16 17 0
17 -1175 1176 0
-16 -1175 1176 0
-1176 -17 16 0
16 -1176 1177 0
-17 -1176 1177 0
-1177 -38 39 0
39 -1177 1178 0
-38 -1177 1178 0
-1178 -39 38 0
38 -1178 1179 0
-39 -1178 1179 0
-1179 -59 60 0
60 -1179 1180 0
-59 -1179 1180 0
-1180 -60 59 0
59 -1180 1181 0
-60 -1180 1181 0
-1181 -79 80 0
80 -1181 1182 0
-79 -1181 1182 0
-1182 -80 79 0
79 -1182 1183 0
-80 -1182 1183 0
-1183 -98 99 0
99 -1183 1184 0
-98 -1183 1184 0
-1184 -99 98 0
98 -1184 1185 0
-99 -1184 1185 0
-1185 -116 117 0
117 -1185 1186 0
-116 -1185 1186 0
-1186 -117 116 0
116 -1186 1187 0
-117 -1186 1187 0
-1187 -133 134 0
1188 0
-294 295 0
295 -1188 1189 0
-294 -1188 1189 0
-1189 -295 294 0
294 -1189 1190 0
-295 -1189 1190 0
-1190 -318 319 0
319 -1190 1191 0
-318 -1190 1191 0
-1191 -319 318 0
318 -1191 1192 0
-319 -1191 1192 0
-1192 -342 343 0
343 -1192 1193 0
-342 -1192 1193 0
-1193 -343 342 0
342 -1193 1194 0
-343 -1193 1194 0
-1194 -366 367 0
367 -1194 1195 0
-366 -1194 1195 0
-1195 -367 366 0
366 -1195 1196 0
-367 -1195 1196 0
-1196 -390 391 0
391 -1196 1197 0
-390 -1196 1197 0
-1197 -391 390 0
390 -1197 1198 0
-391 -1197 1198 0
-1198 -465 469 0
469 -1198 1199 0
-465 -1198 1199 0
-1199 -469 465 0
465 -1199 1200 0
-469 -1199 1200 0
-1200 -466 470 0
470 -1200 1201 0
-466 -1200 1201 0
-1201 -470 466 0
466 -1201 1202 0
-470 -1201 1202 0
-1202 -467 471 0
471 -1202 1203 0
-467 -1202 1203 0
-1203 -471 467 0
467 -1203 1204 0
-471 -1203 1204 0
-1204 -468 472 0
472 -1204 1205 0
-468 -1204 1205 0
-1205 -472 468 0
468 -1205 1206 0
-472 -1205 1206 0
-1206 -17 18 0
18 -1206 1207 0
-17 -1206 1207 0
-1207 -18 17 0
17 -1207 1208 0
-18 -1207 1208 0
-1208 -39 40 0
40 -1208 1209 0
-39 -1208 1209 0
-1209 -40 39 0
39 -1209 1210 0
-40 -1209 1210 0
-1210 -60 61 0
61 -1210 1211 0
-60 -1210 1211 0
-1211 -61 60 0
60 -1211 1212 0
-61 -1211 1212 0
-1212 -80 81 0
81 -1212 1213 0
-80 -1212 1213 0
-1213 -81 80 0
80 -1213 1214 0
-81 -1213 1214 0
-1214 -99 100 0
100 -1214 1215 0
-99 -1214 1215 0
-1215 -100 99 0
99 -1215 1216 0
-100 -1215 1216 0
-1216 -117 118 0
118 -1216 1217 0
-117 -1216 1217 0
-1217 -118 117 0
117 -1217 1218 0
-118 -1217 1218 0
-1218 -134 135 0
1219 0
-295 296 0
296 -1219 1220 0
-295 -1219 1220 0
-1220 -296 295 0
295 -1220 1221 0
-296 -1220 1221 0
-1221 -319 320 0
320 -1221 1222 0
-319 -1221 1222 0
-1222 -320 319 0
319 -1222 1223 0
-320 -1222 1223 0
-1223 -343 344 0
344 -1223 1224 0
-343 -1223 1224 0
-1224 -344 343 0
343 -1224 1225 0
-344 -1224 1225 0
-1225 -367 368 0
368 -1225 1226 0
-367 -1225 1226 0
-1226 -368 367 0
367 -1226 1227 0
-368 -1226 1227 0
-1227 -391 392 0
392 -1227 1228 0
-391 -1227 1228 0
-1228 -392 391 0
391 -1228 1229 0
-392 -1228 1229 0
-1229 -469 473 0
473 -1229 1230 0
-469 -1229 1230 0
-1230 -473 469 0
469 -1230 1231 0
-473 -1230 1231 0
-1231 -470 474 0
474 -1231 1232 0
-470 -1231 1232 0
-1232 -474 470 0
470 -1232 1233 0
-474 -1232 1233 0
-1233 -471 475 0
475 -1233 1234 0
-471 -1233 1234 0
-1234 -475 471 0
471 -1234 1235 0
-475 -1234 1235 0
-1235 -472 476 0
476 -1235 1236 0
-472 -1235 1236 0
-1236 -476 472 0
472 -1236 1237 0
-476 -1236 1237 0
-1237 -18 19 0
19 -1237 1238 0
-18 -1237 1238 0
-1238 -19 18 0
18 -1238 1239 0
-19 -1238 1239 0
-1239 -40 41 0
41 -1239 1240 0
-40 -1239 1240 0
-1240 -41 40 0
40 -1240 1241 0
-41 -1240 1241 0
-1241 -61 62 0
62 -1241 1242 0
-61 -1241 1242 0
-1242 -62 61 0
61 -1242 1243 0
-62 -1242 1243 0
-1243 -81 82 0
82 -1243 1244 0
-81 -1243 1244 0
-1244 -82 81 0
81 -1244 1245 0
-82 -1244 1245 0
-1245 -100 101 0
101 -1245 1246 0
-100 -1245 1246 0
-1246 -101 100 0
100 -1246 1247 0
-101 -1246 1247 0
-1247 -118 119 0
119 -1247 1248 0
-118 -1247 1248 0
-1248 -119 118 0
118 -1248 1249 0
-119 -1248 1249 0
-1249 -135 136 0
1250 0
-296 297 0
297 -1250 1251 0
-296 -1250 1251 0
-1251 -297 296 0
296 -1251 1252 0
-297 -1251 1252 0
-1252 -320 321 0
321 -1252 1253 0
-320 -1252 1253 0
-1253 -321 320 0
320 -1253 1254 0
-321 -1253 1254 0
-1254 -344 345 0
345 -1254 1255 0
-344 -1254 1255 0
-1255 -345 344 0
344 -1255 1256 0
-345 -1255 1256 0
-1256 -368 369 0
369 -1256 1257 0
-368 -1256 1257 0
-1257 -369 368 0
368 -1257 1258 0
-369 -1257 1258 0
-1258 -392 393 0
393 -1258 1259 0
-392 -1258 1259 0
-1259 -393 392 0
392 -1259 1260 0
-393 -1259 1260 0
-1260 -473 477 0
477 -1260 1261 0
-473 -1260 1261 0
-1261 -477 473 0
473 -1261 1262 0
-477 -1261 1262 0
-1262 -474 478 0
478 -1262 1263 0
-474 -1262 1263 0
-1263 -478 474 0
474 -1263 1264 0
-478 -1263 1264 0
-1264 -475 479 0
479 -1264 1265 0
-475 -1264 1265 0
-1265 -479 475 0
475 -1265 1266 0
-479 -1265 1266 0
-1266 -476 480 0
480 -1266 1267 0
-476 -1266 1267 0
-1267 -480 476 0
476 -1267 1268 0
-480 -1267 1268 0
-1268 -19 20 0
20 -1268 1269 0
-19 -1268 1269 0
-1269 -20 19 0
19 -1269 1270 0
-20 -1269 1270 0
-1270 -41 42 0
42 -1270 1271 0
-41 -1270 1271 0
-1271 -42 41 0
41 -1271 1272 0
-42 -1271 1272 0
-1272 -62 63 0
63 -1272 1273 0
-62 -1272 1273 0
-1273 -63 62 0
62 -1273 1274 0
-63 -1273 1274 0
-1274 -82 83 0
83 -1274 1275 0
-82 -1274 1275 0
-1275 -83 82 0
82 -1275 1276 0
-83 -1275 1276 0
-1276 -101 102 0
102 -1276 1277 0
-101 -1276 1277 0
-1277 -102 101 0
101 -1277 1278 0
-102 -1277 1278 0
-1278 -119 120 0
120 -1278 1279 0
-119 -1278 1279 0
-1279 -120 119 0
119 -1279 1280 0
-120 -1279 1280 0
-1280 -136 137 0
1281 0
-297 298 0
298 -1281 1282 0
-297 -1281 1282 0
-1282 -298 297 0
297 -1282 1283 0
-298 -1282 1283 0
-1283 -321 322 0
322 -1283 1284 0
-321 -1283 1284 0
-1284 -322 321 0
321 -1284 1285 0
-322 -1284 1285 0
-1285 -345 346 0
346 -1285 1286 0
-345 -1285 1286 0
-1286 -346 345 0
345 -1286 1287 0
-346 -1286 1287 0
-1287 -369 370 0
370 -1287 1288 0
-369 -1287 1288 0
-1288 -370 369 0
369 -1288 1289 0
-370 -1288 1289 0
-1289 -393 394 0
394 -1289 1290 0
-393 -1289 1290 0
-1290 -394 393 0
393 -1290 1291 0
-394 -1290 1291 0
-1291 -477 481 0
481 -1291 1292 0
-477 -1291 1292 0
-1292 -481 477 0
477 -1292 1293 0
-481 -1292 1293 0
-1293 -478 482 0
482 -1293 1294 0
-478 -1293 1294 0
-1294 -482 478 0
478 -1294 1295 0
-482 -1294 1295 0
-1295 -479 483 0
483 -1295 1296 0
-479 -1295 1296 0
-1296 -483 479 0
479 -1296 1297 0
-483 -1296 1297 0
-1297 -480 484 0
484 -1297 1298 0
-480 -1297 1298 0
-1298 -484 480 0
480 -1298 1299 0
-484 -1298 1299 0
-1299 -20 21 0
21 -1299 1300 0
-20 -1299 1300 0
-1300 -21 20 0
20 -1300 1301 0
-21 -1300 1301 0
-1301 -42 43 0
43 -1301 1302 0
-42 -1301 1302 0
-1302 -43 42 0
42 -1302 1303 0
-43 -1302 1303 0
-1303 -63 64 0
64 -1303 1304 0
-63 -1303 1304 0
-1304 -64 63 0
63 -1304 1305 0
-64 -1304 1305 0
-1305 -83 84 0
84 -1305 1306 0
-83 -1305 1306 0
-1306 -84 83 0
83 -1306 1307 0
-84 -1306 1307 0
-1307 -102 103 0
103 -1307 1308 0
-102 -1307 1308 0
-1308 -103 102 0
102 -1308 1309 0
-103 -1308 1309 0
-1309 -120 121 0
121 -1309 1310 0
-120 -1309 1310 0
-1310 -121 120 0
120 -1310 1311 0
-121 -1310 1311 0
-1311 -137 138 0
1312 0
-298 299 0
299 -1312 1313 0
-298 -1312 1313 0
-1313 -299 298 0
298 -1313 1314 0
-299 -1313 1314 0
-1314 -322 323 0
323 -1314 1315 0
-322 -1314 1315 0
-1315 -323 322 0
322 -1315 1316 0
-323 -1315 1316 0
-1316 -346 347 0
347 -1316 1317 0
-346 -1316 1317 0
-1317 -347 346 0
346 -1317 1318 0
-347 -1317 1318 0
-1318 -370 371 0
371 -1318 1319 0
-370 -1318 1319 0
-1319 -371 370 0
370 -1319 1320 0
-371 -1319 1320 0
-1320 -394 395 0
395 -1320 1321 0
-394 -1320 1321 0
-1321 -395 394 0
394 -1321 1322 0
-395 -1321 1322 0
-1322 -481 485 0
485 -1322 1323 0
-481 -1322 1323 0
-1323 -485 481 0
481 -1323 1324 0
-485 -1323 1324 0
-1324 -482 486 0
486 -1324 1325 0
-482 -1324 1325 0
-1325 -486 482 0
482 -1325 1326 0
-486 -1325 1326 0
-1326 -483 487 0
487 -1326 1327 0
-483 -1326 1327 0
-1327 -487 483 0
483 -1327 1328 0
-487 -1327 1328 0
-1328 -484 488 0
488 -1328 1329 0
-484 -1328 1329 0
-1329 -488 484 0
484 -1329 1330 0
-488 -1329 1330 0
-1330 -21 22 0
22 -1330 1331 0
-21 -1330 1331 0
-1331 -22 21 0
21 -1331 1332 0
-22 -1331 1332 0
-1332 -43 44 0
44 -1332 1333 0
-43 -1332 1333 0
-1333 -44 43 0
43 -1333 1334 0
-44 -1333 1334 0
-1334 -64 65 0
65 -1334 1335 0
-64 -1334 1335 0
-1335 -65 64 0
64 -1335 1336 0
-65 -1335 1336 0
-1336 -84 85 0
85 -1336 1337 0
-84 -1336 1337 0
-1337 -85 84 0
84 -1337 1338 0
-85 -1337 1338 0
-1338 -103 104 0
104 -1338 1339 0
-103 -1338 1339 0
-1339 -104 103 0
103 -1339 1340 0
-104 -1339 1340 0
-1340 -121 122 0
122 -1340 1341 0
-121 -1340 1341 0
-1341 -122 121 0
121 -1341 1342 0
-122 -1341 1342 0
-1342 -138 139 0
1343 0
-299 300 0
300 -1343 1344 0
-299 -1343 1344 0
-1344 -300 299 0
299 -1344 1345 0
-300 -1344 1345 0
-1345 -323 324 0
324 -1345 1346 0
-323 -1345 1346 0
-1346 -324 323 0
323 -1346 1347 0
-324 -1346 1347 0
-1347 -347 348 0
348 -1347 1348 0
-347 -1347 1348 0
-1348 -348 347 0
347 -1348 1349 0
-348 -1348 1349 0
-1349 -371 372 0
372 -1349 1350 0
-371 -1349 1350 0
-1350 -372 371 0
371 -1350 1351 0
-372 -1350 1351 0
-1351 -395 396 0
396 -1351 1352 0
-395 -1351 1352 0
-1352 -396 395 0
395 -1352 1353 0
-396 -1352 1353 0
-1353 -485 489 0
489 -1353 1354 0
-485 -1353 1354 0
-1354 -489 485 0
485 -1354 1355 0
-489 -1354 1355 0
-1355 -486 490 0
490 -1355 1356 0
-486 -1355 1356 0
-1356 -490 486 0
486 -1356 1357 0
-490 -1356 1357 0
-1357 -487 491 0
491 -1357 1358 0
-487 -1357 1358 0
-1358 -491 487 0
487 -1358 1359 0
-491 -1358 1359 0
-1359 -488 492 0
492 -1359 1360 0
-488 -1359 1360 0
-1360 -492 488 0
488 -1360 1361 0
-492 -1360 1361 0
-1361 -22 23 0
23 -1361 1362 0
-22 -1361 1362 0
-1362 -23 22 0
22 -1362 1363 0
-23 -1362 1363 0
-1363 -44 45 0
45 -1363 1364 0
-44 -1363 1364 0
-1364 -45 44 0
44 -1364 1365 0
-45 -1364 1365 0
-1365 -65 66 0
66 -1365 1366 0
-65 -1365 1366 0
-1366 -66 65 0
65 -1366 1367 0
-66 -1366 1367 0
-1367 -85 86 0
86 -1367 1368 0
-85 -1367 1368 0
-1368 -86 85 0
85 -1368 1369 0
-86 -1368 1369 0
-1369 -104 105 0
105 -1369 1370 0
-104 -1369 1370 0
-1370 -105 104 0
104 -1370 1371 0
-105 -1370 1371 0
-1371 -122 123 0
123 -1371 1372 0
-122 -1371 1372 0
-1372 -123 122 0
122 -1372 1373 0
-123 -1372 1373 0
-1373 -139 140 0
