p cnf 909 8916
-121 -122 0
-121 -123 0
-121 -124 0
-121 -125 0
-121 -126 0
-121 -127 0
-121 -128 0
-121 -129 0
-121 -130 0
-121 -131 0
-121 -132 0
-121 -133 0
-121 -134 0
-121 -135 0
-121 -136 0
-122 -123 0
-122 -124 0
-122 -125 0
-122 -126 0
-122 -127 0
-122 -128 0
-122 -129 0
-122 -130 0
-122 -131 0
-122 -132 0
-122 -133 0
-122 -134 0
-122 -135 0
-122 -136 0
-123 -124 0
-123 -125 0
-123 -126 0
-123 -127 0
-123 -128 0
-123 -129 0
-123 -130 0
-123 -131 0
-123 -132 0
-123 -133 0
-123 -134 0
-123 -135 0
-123 -136 0
-124 -125 0
-124 -126 0
-124 -127 0
-124 -128 0
-124 -129 0
-124 -130 0
-124 -131 0
-124 -132 0
-124 -133 0
-124 -134 0
-124 -135 0
-124 -136 0
-125 -126 0
-125 -127 0
-125 -128 0
-125 -129 0
-125 -130 0
-125 -131 0
-125 -132 0
-125 -133 0
-125 -134 0
-125 -135 0
-125 -136 0
-126 -127 0
-126 -128 0
-126 -129 0
-126 -130 0
-126 -131 0
-126 -132 0
-126 -133 0
-126 -134 0
-126 -135 0
-126 -136 0
-127 -128 0
-127 -129 0
-127 -130 0
-127 -131 0
-127 -132 0
-127 -133 0
-127 -134 0
-127 -135 0
-127 -136 0
-128 -129 0
-128 -130 0
-128 -131 0
-128 -132 0
-128 -133 0
-128 -134 0
-128 -135 0
-128 -136 0
-129 -130 0
-129 -131 0
-129 -132 0
-129 -133 0
-129 -134 0
-129 -135 0
-129 -136 0
-130 -131 0
-130 -132 0
-130 -133 0
-130 -134 0
-130 -135 0
-130 -136 0
-131 -132 0
-131 -133 0
-131 -134 0
-131 -135 0
-131 -136 0
-132 -133 0
-132 -134 0
-132 -135 0
-132 -136 0
-133 -134 0
-133 -135 0
-133 -136 0
-134 -135 0
-134 -136 0
-135 -136 0
121 122 123 124 125 126 127 128 129 130 131 132 133 134 135 136 0
-137 -138 0
-137 -139 0
-137 -140 0
-137 -141 0
-137 -142 0
-137 -143 0
-137 -144 0
-137 -145 0
-137 -146 0
-137 -147 0
-137 -148 0
-137 -149 0
-137 -150 0
-137 -151 0
-137 -152 0
-138 -139 0
-138 -140 0
-138 -141 0
-138 -142 0
-138 -143 0
-138 -144 0
-138 -145 0
-138 -146 0
-138 -147 0
-138 -148 0
-138 -149 0
-138 -150 0
-138 -151 0
-138 -152 0
-139 -140 0
-139 -141 0
-139 -142 0
-139 -143 0
-139 -144 0
-139 -145 0
-139 -146 0
-139 -147 0
-139 -148 0
-139 -149 0
-139 -150 0
-139 -151 0
-139 -152 0
-140 -141 0
-140 -142 0
-140 -143 0
-140 -144 0
-140 -145 0
-140 -146 0
-140 -147 0
-140 -148 0
-140 -149 0
-140 -150 0
-140 -151 0
-140 -152 0
-141 -142 0
-141 -143 0
-141 -144 0
-141 -145 0
-141 -146 0
-141 -147 0
-141 -148 0
-141 -149 0
-141 -150 0
-141 -151 0
-141 -152 0
-142 -143 0
-142 -144 0
-142 -145 0
-142 -146 0
-142 -147 0
-142 -148 0
-142 -149 0
-142 -150 0
-142 -151 0
-142 -152 0
-143 -144 0
-143 -145 0
-143 -146 0
-143 -147 0
-143 -148 0
-143 -149 0
-143 -150 0
-143 -151 0
-143 -152 0
-144 -145 0
-144 -146 0
-144 -147 0
-144 -148 0
-144 -149 0
-144 -150 0
-144 -151 0
-144 -152 0
-145 -146 0
-145 -147 0
-145 -148 0
-145 -149 0
-145 -150 0
-145 -151 0
-145 -152 0
-146 -147 0
-146 -148 0
-146 -149 0
-146 -150 0
-146 -151 0
-146 -152 0
-147 -148 0
-147 -149 0
-147 -150 0
-147 -151 0
-147 -152 0
-148 -149 0
-148 -150 0
-148 -151 0
-148 -152 0
-149 -150 0
-149 -151 0
-149 -152 0
-150 -151 0
-150 -152 0
-151 -152 0
137 138 139 140 141 142 143 144 145 146 147 148 149 150 151 152 0
-153 -154 0
-153 -155 0
-153 -156 0
-153 -157 0
-153 -158 0
-153 -159 0
-153 -160 0
-153 -161 0
-153 -162 0
-153 -163 0
-153 -164 0
-153 -165 0
-153 -166 0
-153 -167 0
-153 -168 0
-154 -155 0
-154 -156 0
-154 -157 0
-154 -158 0
-154 -159 0
-154 -160 0
-154 -161 0
-154 -162 0
-154 -163 0
-154 -164 0
-154 -165 0
-154 -166 0
-154 -167 0
-154 -168 0
-155 -156 0
-155 -157 0
-155 -158 0
-155 -159 0
-155 -160 0
-155 -161 0
-155 -162 0
-155 -163 0
-155 -164 0
-155 -165 0
-155 -166 0
-155 -167 0
-155 -168 0
-156 -157 0
-156 -158 0
-156 -159 0
-156 -160 0
-156 -161 0
-156 -162 0
-156 -163 0
-156 -164 0
-156 -165 0
-156 -166 0
-156 -167 0
-156 -168 0
-157 -158 0
-157 -159 0
-157 -160 0
-157 -161 0
-157 -162 0
-157 -163 0
-157 -164 0
-157 -165 0
-157 -166 0
-157 -167 0
-157 -168 0
-158 -159 0
-158 -160 0
-158 -161 0
-158 -162 0
-158 -163 0
-158 -164 0
-158 -165 0
-158 -166 0
-158 -167 0
-158 -168 0
-159 -160 0
-159 -161 0
-159 -162 0
-159 -163 0
-159 -164 0
-159 -165 0
-159 -166 0
-159 -167 0
-159 -168 0
-160 -161 0
-160 -162 0
-160 -163 0
-160 -164 0
-160 -165 0
-160 -166 0
-160 -167 0
-160 -168 0
-161 -162 0
-161 -163 0
-161 -164 0
-161 -165 0
-161 -166 0
-161 -167 0
-161 -168 0
-162 -163 0
-162 -164 0
-162 -165 0
-162 -166 0
-162 -167 0
-162 -168 0
-163 -164 0
-163 -165 0
-163 -166 0
-163 -167 0
-163 -168 0
-164 -165 0
-164 -166 0
-164 -167 0
-164 -168 0
-165 -166 0
-165 -167 0
-165 -168 0
-166 -167 0
-166 -168 0
-167 -168 0
153 154 155 156 157 158 159 160 161 162 163 164 165 166 167 168 0
-169 -170 0
-169 -171 0
-169 -172 0
-169 -173 0
-169 -174 0
-169 -175 0
-169 -176 0
-169 -177 0
-169 -178 0
-169 -179 0
-169 -180 0
-169 -181 0
-169 -182 0
-169 -183 0
-169 -184 0
-170 -171 0
-170 -172 0
-170 -173 0
-170 -174 0
-170 -175 0
-170 -176 0
-170 -177 0
-170 -178 0
-170 -179 0
-170 -180 0
-170 -181 0
-170 -182 0
-170 -183 0
-170 -184 0
-171 -172 0
-171 -173 0
-171 -174 0
-171 -175 0
-171 -176 0
-171 -177 0
-171 -178 0
-171 -179 0
-171 -180 0
-171 -181 0
-171 -182 0
-171 -183 0
-171 -184 0
-172 -173 0
-172 -174 0
-172 -175 0
-172 -176 0
-172 -177 0
-172 -178 0
-172 -179 0
-172 -180 0
-172 -181 0
-172 -182 0
-172 -183 0
-172 -184 0
-173 -174 0
-173 -175 0
-173 -176 0
-173 -177 0
-173 -178 0
-173 -179 0
-173 -180 0
-173 -181 0
-173 -182 0
-173 -183 0
-173 -184 0
-174 -175 0
-174 -176 0
-174 -177 0
-174 -178 0
-174 -179 0
-174 -180 0
-174 -181 0
-174 -182 0
-174 -183 0
-174 -184 0
-175 -176 0
-175 -177 0
-175 -178 0
-175 -179 0
-175 -180 0
-175 -181 0
-175 -182 0
-175 -183 0
-175 -184 0
-176 -177 0
-176 -178 0
-176 -179 0
-176 -180 0
-176 -181 0
-176 -182 0
-176 -183 0
-176 -184 0
-177 -178 0
-177 -179 0
-177 -180 0
-177 -181 0
-177 -182 0
-177 -183 0
-177 -184 0
-178 -179 0
-178 -180 0
-178 -181 0
-178 -182 0
-178 -183 0
-178 -184 0
-179 -180 0
-179 -181 0
-179 -182 0
-179 -183 0
-179 -184 0
-180 -181 0
-180 -182 0
-180 -183 0
-180 -184 0
-181 -182 0
-181 -183 0
-181 -184 0
-182 -183 0
-182 -184 0
-183 -184 0
169 170 171 172 173 174 175 176 177 178 179 180 181 182 183 184 0
-185 -186 0
-185 -187 0
-185 -188 0
-185 -189 0
-185 -190 0
-185 -191 0
-185 -192 0
-185 -193 0
-185 -194 0
-185 -195 0
-185 -196 0
-185 -197 0
-185 -198 0
-185 -199 0
-185 -200 0
-186 -187 0
-186 -188 0
-186 -189 0
-186 -190 0
-186 -191 0
-186 -192 0
-186 -193 0
-186 -194 0
-186 -195 0
-186 -196 0
-186 -197 0
-186 -198 0
-186 -199 0
-186 -200 0
-187 -188 0
-187 -189 0
-187 -190 0
-187 -191 0
-187 -192 0
-187 -193 0
-187 -194 0
-187 -195 0
-187 -196 0
-187 -197 0
-187 -198 0
-187 -199 0
-187 -200 0
-188 -189 0
-188 -190 0
-188 -191 0
-188 -192 0
-188 -193 0
-188 -194 0
-188 -195 0
-188 -196 0
-188 -197 0
-188 -198 0
-188 -199 0
-188 -200 0
-189 -190 0
-189 -191 0
-189 -192 0
-189 -193 0
-189 -194 0
-189 -195 0
-189 -196 0
-189 -197 0
-189 -198 0
-189 -199 0
-189 -200 0
-190 -191 0
-190 -192 0
-190 -193 0
-190 -194 0
-190 -195 0
-190 -196 0
-190 -197 0
-190 -198 0
-190 -199 0
-190 -200 0
-191 -192 0
-191 -193 0
-191 -194 0
-191 -195 0
-191 -196 0
-191 -197 0
-191 -198 0
-191 -199 0
-191 -200 0
-192 -193 0
-192 -194 0
-192 -195 0
-192 -196 0
-192 -197 0
-192 -198 0
-192 -199 0
-192 -200 0
-193 -194 0
-193 -195 0
-193 -196 0
-193 -197 0
-193 -198 0
-193 -199 0
-193 -200 0
-194 -195 0
-194 -196 0
-194 -197 0
-194 -198 0
-194 -199 0
-194 -200 0
-195 -196 0
-195 -197 0
-195 -198 0
-195 -199 0
-195 -200 0
-196 -197 0
-196 -198 0
-196 -199 0
-196 -200 0
-197 -198 0
-197 -199 0
-197 -200 0
-198 -199 0
-198 -200 0
-199 -200 0
185 186 187 188 189 190 191 192 193 194 195 196 197 198 199 200 0
-201 -202 0
-201 -203 0
-201 -204 0
-201 -205 0
-201 -206 0
-201 -207 0
-201 -208 0
-201 -209 0
-201 -210 0
-201 -211 0
-201 -212 0
-201 -213 0
-201 -214 0
-201 -215 0
-201 -216 0
-202 -203 0
-202 -204 0
-202 -205 0
-202 -206 0
-202 -207 0
-202 -208 0
-202 -209 0
-202 -210 0
-202 -211 0
-202 -212 0
-202 -213 0
-202 -214 0
-202 -215 0
-202 -216 0
-203 -204 0
-203 -205 0
-203 -206 0
-203 -207 0
-203 -208 0
-203 -209 0
-203 -210 0
-203 -211 0
-203 -212 0
-203 -213 0
-203 -214 0
-203 -215 0
-203 -216 0
-204 -205 0
-204 -206 0
-204 -207 0
-204 -208 0
-204 -209 0
-204 -210 0
-204 -211 0
-204 -212 0
-204 -213 0
-204 -214 0
-204 -215 0
-204 -216 0
-205 -206 0
-205 -207 0
-205 -208 0
-205 -209 0
-205 -210 0
-205 -211 0
-205 -212 0
-205 -213 0
-205 -214 0
-205 -215 0
-205 -216 0
-206 -207 0
-206 -208 0
-206 -209 0
-206 -210 0
-206 -211 0
-206 -212 0
-206 -213 0
-206 -214 0
-206 -215 0
-206 -216 0
-207 -208 0
-207 -209 0
-207 -210 0
-207 -211 0
-207 -212 0
-207 -213 0
-207 -214 0
-207 -215 0
-207 -216 0
-208 -209 0
-208 -210 0
-208 -211 0
-208 -212 0
-208 -213 0
-208 -214 0
-208 -215 0
-208 -216 0
-209 -210 0
-209 -211 0
-209 -212 0
-209 -213 0
-209 -214 0
-209 -215 0
-209 -216 0
-210 -211 0
-210 -212 0
-210 -213 0
-210 -214 0
-210 -215 0
-210 -216 0
-211 -212 0
-211 -213 0
-211 -214 0
-211 -215 0
-211 -216 0
-212 -213 0
-212 -214 0
-212 -215 0
-212 -216 0
-213 -214 0
-213 -215 0
-213 -216 0
-214 -215 0
-214 -216 0
-215 -216 0
201 202 203 204 205 206 207 208 209 210 211 212 213 214 215 216 0
-217 -218 0
-217 -219 0
-217 -220 0
-217 -221 0
-217 -222 0
-217 -223 0
-217 -224 0
-217 -225 0
-217 -226 0
-217 -227 0
-217 -228 0
-217 -229 0
-217 -230 0
-217 -231 0
-217 -232 0
-218 -219 0
-218 -220 0
-218 -221 0
-218 -222 0
-218 -223 0
-218 -224 0
-218 -225 0
-218 -226 0
-218 -227 0
-218 -228 0
-218 -229 0
-218 -230 0
-218 -231 0
-218 -232 0
-219 -220 0
-219 -221 0
-219 -222 0
-219 -223 0
-219 -224 0
-219 -225 0
-219 -226 0
-219 -227 0
-219 -228 0
-219 -229 0
-219 -230 0
-219 -231 0
-219 -232 0
-220 -221 0
-220 -222 0
-220 -223 0
-220 -224 0
-220 -225 0
-220 -226 0
-220 -227 0
-220 -228 0
-220 -229 0
-220 -230 0
-220 -231 0
-220 -232 0
-221 -222 0
-221 -223 0
-221 -224 0
-221 -225 0
-221 -226 0
-221 -227 0
-221 -228 0
-221 -229 0
-221 -230 0
-221 -231 0
-221 -232 0
-222 -223 0
-222 -224 0
-222 -225 0
-222 -226 0
-222 -227 0
-222 -228 0
-222 -229 0
-222 -230 0
-222 -231 0
-222 -232 0
-223 -224 0
-223 -225 0
-223 -226 0
-223 -227 0
-223 -228 0
-223 -229 0
-223 -230 0
-223 -231 0
-223 -232 0
-224 -225 0
-224 -226 0
-224 -227 0
-224 -228 0
-224 -229 0
-224 -230 0
-224 -231 0
-224 -232 0
-225 -226 0
-225 -227 0
-225 -228 0
-225 -229 0
-225 -230 0
-225 -231 0
-225 -232 0
-226 -227 0
-226 -228 0
-226 -229 0
-226 -230 0
-226 -231 0
-226 -232 0
-227 -228 0
-227 -229 0
-227 -230 0
-227 -231 0
-227 -232 0
-228 -229 0
-228 -230 0
-228 -231 0
-228 -232 0
-229 -230 0
-229 -231 0
-229 -232 0
-230 -231 0
-230 -232 0
-231 -232 0
217 218 219 220 221 222 223 224 225 226 227 228 229 230 231 232 0
-121 -137 0
-121 -153 0
-121 -169 0
-121 -185 0
-121 -201 0
-121 -217 0
-137 -153 0
-137 -169 0
-137 -185 0
-137 -201 0
-137 -217 0
-153 -169 0
-153 -185 0
-153 -201 0
-153 -217 0
-169 -185 0
-169 -201 0
-169 -217 0
-185 -201 0
-185 -217 0
-201 -217 0
-122 -138 0
-122 -154 0
-122 -170 0
-122 -186 0
-122 -202 0
-122 -218 0
-138 -154 0
-138 -170 0
-138 -186 0
-138 -202 0
-138 -218 0
-154 -170 0
-154 -186 0
-154 -202 0
-154 -218 0
-170 -186 0
-170 -202 0
-170 -218 0
-186 -202 0
-186 -218 0
-202 -218 0
-123 -139 0
-123 -155 0
-123 -171 0
-123 -187 0
-123 -203 0
-123 -219 0
-139 -155 0
-139 -171 0
-139 -187 0
-139 -203 0
-139 -219 0
-155 -171 0
-155 -187 0
-155 -203 0
-155 -219 0
-171 -187 0
-171 -203 0
-171 -219 0
-187 -203 0
-187 -219 0
-203 -219 0
-124 -140 0
-124 -156 0
-124 -172 0
-124 -188 0
-124 -204 0
-124 -220 0
-140 -156 0
-140 -172 0
-140 -188 0
-140 -204 0
-140 -220 0
-156 -172 0
-156 -188 0
-156 -204 0
-156 -220 0
-172 -188 0
-172 -204 0
-172 -220 0
-188 -204 0
-188 -220 0
-204 -220 0
-125 -141 0
-125 -157 0
-125 -173 0
-125 -189 0
-125 -205 0
-125 -221 0
-141 -157 0
-141 -173 0
-141 -189 0
-141 -205 0
-141 -221 0
-157 -173 0
-157 -189 0
-157 -205 0
-157 -221 0
-173 -189 0
-173 -205 0
-173 -221 0
-189 -205 0
-189 -221 0
-205 -221 0
-126 -142 0
-126 -158 0
-126 -174 0
-126 -190 0
-126 -206 0
-126 -222 0
-142 -158 0
-142 -174 0
-142 -190 0
-142 -206 0
-142 -222 0
-158 -174 0
-158 -190 0
-158 -206 0
-158 -222 0
-174 -190 0
-174 -206 0
-174 -222 0
-190 -206 0
-190 -222 0
-206 -222 0
-127 -143 0
-127 -159 0
-127 -175 0
-127 -191 0
-127 -207 0
-127 -223 0
-143 -159 0
-143 -175 0
-143 -191 0
-143 -207 0
-143 -223 0
-159 -175 0
-159 -191 0
-159 -207 0
-159 -223 0
-175 -191 0
-175 -207 0
-175 -223 0
-191 -207 0
-191 -223 0
-207 -223 0
-128 -144 0
-128 -160 0
-128 -176 0
-128 -192 0
-128 -208 0
-128 -224 0
-144 -160 0
-144 -176 0
-144 -192 0
-144 -208 0
-144 -224 0
-160 -176 0
-160 -192 0
-160 -208 0
-160 -224 0
-176 -192 0
-176 -208 0
-176 -224 0
-192 -208 0
-192 -224 0
-208 -224 0
-129 -145 0
-129 -161 0
-129 -177 0
-129 -193 0
-129 -209 0
-129 -225 0
-145 -161 0
-145 -177 0
-145 -193 0
-145 -209 0
-145 -225 0
-161 -177 0
-161 -193 0
-161 -209 0
-161 -225 0
-177 -193 0
-177 -209 0
-177 -225 0
-193 -209 0
-193 -225 0
-209 -225 0
-130 -146 0
-130 -162 0
-130 -178 0
-130 -194 0
-130 -210 0
-130 -226 0
-146 -162 0
-146 -178 0
-146 -194 0
-146 -210 0
-146 -226 0
-162 -178 0
-162 -194 0
-162 -210 0
-162 -226 0
-178 -194 0
-178 -210 0
-178 -226 0
-194 -210 0
-194 -226 0
-210 -226 0
-131 -147 0
-131 -163 0
-131 -179 0
-131 -195 0
-131 -211 0
-131 -227 0
-147 -163 0
-147 -179 0
-147 -195 0
-147 -211 0
-147 -227 0
-163 -179 0
-163 -195 0
-163 -211 0
-163 -227 0
-179 -195 0
-179 -211 0
-179 -227 0
-195 -211 0
-195 -227 0
-211 -227 0
-132 -148 0
-132 -164 0
-132 -180 0
-132 -196 0
-132 -212 0
-132 -228 0
-148 -164 0
-148 -180 0
-148 -196 0
-148 -212 0
-148 -228 0
-164 -180 0
-164 -196 0
-164 -212 0
-164 -228 0
-180 -196 0
-180 -212 0
-180 -228 0
-196 -212 0
-196 -228 0
-212 -228 0
-133 -149 0
-133 -165 0
-133 -181 0
-133 -197 0
-133 -213 0
-133 -229 0
-149 -165 0
-149 -181 0
-149 -197 0
-149 -213 0
-149 -229 0
-165 -181 0
-165 -197 0
-165 -213 0
-165 -229 0
-181 -197 0
-181 -213 0
-181 -229 0
-197 -213 0
-197 -229 0
-213 -229 0
-134 -150 0
-134 -166 0
-134 -182 0
-134 -198 0
-134 -214 0
-134 -230 0
-150 -166 0
-150 -182 0
-150 -198 0
-150 -214 0
-150 -230 0
-166 -182 0
-166 -198 0
-166 -214 0
-166 -230 0
-182 -198 0
-182 -214 0
-182 -230 0
-198 -214 0
-198 -230 0
-214 -230 0
-135 -151 0
-135 -167 0
-135 -183 0
-135 -199 0
-135 -215 0
-135 -231 0
-151 -167 0
-151 -183 0
-151 -199 0
-151 -215 0
-151 -231 0
-167 -183 0
-167 -199 0
-167 -215 0
-167 -231 0
-183 -199 0
-183 -215 0
-183 -231 0
-199 -215 0
-199 -231 0
-215 -231 0
-136 -152 0
-136 -168 0
-136 -184 0
-136 -200 0
-136 -216 0
-136 -232 0
-152 -168 0
-152 -184 0
-152 -200 0
-152 -216 0
-152 -232 0
-168 -184 0
-168 -200 0
-168 -216 0
-168 -232 0
-184 -200 0
-184 -216 0
-184 -232 0
-200 -216 0
-200 -232 0
-216 -232 0
1 -121 -138 0
1 -121 -154 0
1 -121 -170 0
1 -121 -186 0
1 -121 -202 0
1 -121 -218 0
1 -137 -122 0
1 -137 -154 0
1 -137 -170 0
1 -137 -186 0
1 -137 -202 0
1 -137 -218 0
1 -153 -122 0
1 -153 -138 0
1 -153 -170 0
1 -153 -186 0
1 -153 -202 0
1 -153 -218 0
1 -169 -122 0
1 -169 -138 0
1 -169 -154 0
1 -169 -186 0
1 -169 -202 0
1 -169 -218 0
1 -185 -122 0
1 -185 -138 0
1 -185 -154 0
1 -185 -170 0
1 -185 -202 0
1 -185 -218 0
1 -201 -122 0
1 -201 -138 0
1 -201 -154 0
1 -201 -170 0
1 -201 -186 0
1 -201 -218 0
1 -217 -122 0
1 -217 -138 0
1 -217 -154 0
1 -217 -170 0
1 -217 -186 0
1 -217 -202 0
2 -121 -139 0
2 -121 -155 0
2 -121 -171 0
2 -121 -187 0
2 -121 -203 0
2 -121 -219 0
2 -137 -123 0
2 -137 -155 0
2 -137 -171 0
2 -137 -187 0
2 -137 -203 0
2 -137 -219 0
2 -153 -123 0
2 -153 -139 0
2 -153 -171 0
2 -153 -187 0
2 -153 -203 0
2 -153 -219 0
2 -169 -123 0
2 -169 -139 0
2 -169 -155 0
2 -169 -187 0
2 -169 -203 0
2 -169 -219 0
2 -185 -123 0
2 -185 -139 0
2 -185 -155 0
2 -185 -171 0
2 -185 -203 0
2 -185 -219 0
2 -201 -123 0
2 -201 -139 0
2 -201 -155 0
2 -201 -171 0
2 -201 -187 0
2 -201 -219 0
2 -217 -123 0
2 -217 -139 0
2 -217 -155 0
2 -217 -171 0
2 -217 -187 0
2 -217 -203 0
3 -121 -140 0
3 -121 -156 0
3 -121 -172 0
3 -121 -188 0
3 -121 -204 0
3 -121 -220 0
3 -137 -124 0
3 -137 -156 0
3 -137 -172 0
3 -137 -188 0
3 -137 -204 0
3 -137 -220 0
3 -153 -124 0
3 -153 -140 0
3 -153 -172 0
3 -153 -188 0
3 -153 -204 0
3 -153 -220 0
3 -169 -124 0
3 -169 -140 0
3 -169 -156 0
3 -169 -188 0
3 -169 -204 0
3 -169 -220 0
3 -185 -124 0
3 -185 -140 0
3 -185 -156 0
3 -185 -172 0
3 -185 -204 0
3 -185 -220 0
3 -201 -124 0
3 -201 -140 0
3 -201 -156 0
3 -201 -172 0
3 -201 -188 0
3 -201 -220 0
3 -217 -124 0
3 -217 -140 0
3 -217 -156 0
3 -217 -172 0
3 -217 -188 0
3 -217 -204 0
4 -121 -141 0
4 -121 -157 0
4 -121 -173 0
4 -121 -189 0
4 -121 -205 0
4 -121 -221 0
4 -137 -125 0
4 -137 -157 0
4 -137 -173 0
4 -137 -189 0
4 -137 -205 0
4 -137 -221 0
4 -153 -125 0
4 -153 -141 0
4 -153 -173 0
4 -153 -189 0
4 -153 -205 0
4 -153 -221 0
4 -169 -125 0
4 -169 -141 0
4 -169 -157 0
4 -169 -189 0
4 -169 -205 0
4 -169 -221 0
4 -185 -125 0
4 -185 -141 0
4 -185 -157 0
4 -185 -173 0
4 -185 -205 0
4 -185 -221 0
4 -201 -125 0
4 -201 -141 0
4 -201 -157 0
4 -201 -173 0
4 -201 -189 0
4 -201 -221 0
4 -217 -125 0
4 -217 -141 0
4 -217 -157 0
4 -217 -173 0
4 -217 -189 0
4 -217 -205 0
5 -121 -142 0
5 -121 -158 0
5 -121 -174 0
5 -121 -190 0
5 -121 -206 0
5 -121 -222 0
5 -137 -126 0
5 -137 -158 0
5 -137 -174 0
5 -137 -190 0
5 -137 -206 0
5 -137 -222 0
5 -153 -126 0
5 -153 -142 0
5 -153 -174 0
5 -153 -190 0
5 -153 -206 0
5 -153 -222 0
5 -169 -126 0
5 -169 -142 0
5 -169 -158 0
5 -169 -190 0
5 -169 -206 0
5 -169 -222 0
5 -185 -126 0
5 -185 -142 0
5 -185 -158 0
5 -185 -174 0
5 -185 -206 0
5 -185 -222 0
5 -201 -126 0
5 -201 -142 0
5 -201 -158 0
5 -201 -174 0
5 -201 -190 0
5 -201 -222 0
5 -217 -126 0
5 -217 -142 0
5 -217 -158 0
5 -217 -174 0
5 -217 -190 0
5 -217 -206 0
6 -121 -143 0
6 -121 -159 0
6 -121 -175 0
6 -121 -191 0
6 -121 -207 0
6 -121 -223 0
6 -137 -127 0
6 -137 -159 0
6 -137 -175 0
6 -137 -191 0
6 -137 -207 0
6 -137 -223 0
6 -153 -127 0
6 -153 -143 0
6 -153 -175 0
6 -153 -191 0
6 -153 -207 0
6 -153 -223 0
6 -169 -127 0
6 -169 -143 0
6 -169 -159 0
6 -169 -191 0
6 -169 -207 0
6 -169 -223 0
6 -185 -127 0
6 -185 -143 0
6 -185 -159 0
6 -185 -175 0
6 -185 -207 0
6 -185 -223 0
6 -201 -127 0
6 -201 -143 0
6 -201 -159 0
6 -201 -175 0
6 -201 -191 0
6 -201 -223 0
6 -217 -127 0
6 -217 -143 0
6 -217 -159 0
6 -217 -175 0
6 -217 -191 0
6 -217 -207 0
7 -121 -144 0
7 -121 -160 0
7 -121 -176 0
7 -121 -192 0
7 -121 -208 0
7 -121 -224 0
7 -137 -128 0
7 -137 -160 0
7 -137 -176 0
7 -137 -192 0
7 -137 -208 0
7 -137 -224 0
7 -153 -128 0
7 -153 -144 0
7 -153 -176 0
7 -153 -192 0
7 -153 -208 0
7 -153 -224 0
7 -169 -128 0
7 -169 -144 0
7 -169 -160 0
7 -169 -192 0
7 -169 -208 0
7 -169 -224 0
7 -185 -128 0
7 -185 -144 0
7 -185 -160 0
7 -185 -176 0
7 -185 -208 0
7 -185 -224 0
7 -201 -128 0
7 -201 -144 0
7 -201 -160 0
7 -201 -176 0
7 -201 -192 0
7 -201 -224 0
7 -217 -128 0
7 -217 -144 0
7 -217 -160 0
7 -217 -176 0
7 -217 -192 0
7 -217 -208 0
8 -121 -145 0
8 -121 -161 0
8 -121 -177 0
8 -121 -193 0
8 -121 -209 0
8 -121 -225 0
8 -137 -129 0
8 -137 -161 0
8 -137 -177 0
8 -137 -193 0
8 -137 -209 0
8 -137 -225 0
8 -153 -129 0
8 -153 -145 0
8 -153 -177 0
8 -153 -193 0
8 -153 -209 0
8 -153 -225 0
8 -169 -129 0
8 -169 -145 0
8 -169 -161 0
8 -169 -193 0
8 -169 -209 0
8 -169 -225 0
8 -185 -129 0
8 -185 -145 0
8 -185 -161 0
8 -185 -177 0
8 -185 -209 0
8 -185 -225 0
8 -201 -129 0
8 -201 -145 0
8 -201 -161 0
8 -201 -177 0
8 -201 -193 0
8 -201 -225 0
8 -217 -129 0
8 -217 -145 0
8 -217 -161 0
8 -217 -177 0
8 -217 -193 0
8 -217 -209 0
9 -121 -146 0
9 -121 -162 0
9 -121 -178 0
9 -121 -194 0
9 -121 -210 0
9 -121 -226 0
9 -137 -130 0
9 -137 -162 0
9 -137 -178 0
9 -137 -194 0
9 -137 -210 0
9 -137 -226 0
9 -153 -130 0
9 -153 -146 0
9 -153 -178 0
9 -153 -194 0
9 -153 -210 0
9 -153 -226 0
9 -169 -130 0
9 -169 -146 0
9 -169 -162 0
9 -169 -194 0
9 -169 -210 0
9 -169 -226 0
9 -185 -130 0
9 -185 -146 0
9 -185 -162 0
9 -185 -178 0
9 -185 -210 0
9 -185 -226 0
9 -201 -130 0
9 -201 -146 0
9 -201 -162 0
9 -201 -178 0
9 -201 -194 0
9 -201 -226 0
9 -217 -130 0
9 -217 -146 0
9 -217 -162 0
9 -217 -178 0
9 -217 -194 0
9 -217 -210 0
10 -121 -147 0
10 -121 -163 0
10 -121 -179 0
10 -121 -195 0
10 -121 -211 0
10 -121 -227 0
10 -137 -131 0
10 -137 -163 0
10 -137 -179 0
10 -137 -195 0
10 -137 -211 0
10 -137 -227 0
10 -153 -131 0
10 -153 -147 0
10 -153 -179 0
10 -153 -195 0
10 -153 -211 0
10 -153 -227 0
10 -169 -131 0
10 -169 -147 0
10 -169 -163 0
10 -169 -195 0
10 -169 -211 0
10 -169 -227 0
10 -185 -131 0
10 -185 -147 0
10 -185 -163 0
10 -185 -179 0
10 -185 -211 0
10 -185 -227 0
10 -201 -131 0
10 -201 -147 0
10 -201 -163 0
10 -201 -179 0
10 -201 -195 0
10 -201 -227 0
10 -217 -131 0
10 -217 -147 0
10 -217 -163 0
10 -217 -179 0
10 -217 -195 0
10 -217 -211 0
11 -121 -148 0
11 -121 -164 0
11 -121 -180 0
11 -121 -196 0
11 -121 -212 0
11 -121 -228 0
11 -137 -132 0
11 -137 -164 0
11 -137 -180 0
11 -137 -196 0
11 -137 -212 0
11 -137 -228 0
11 -153 -132 0
11 -153 -148 0
11 -153 -180 0
11 -153 -196 0
11 -153 -212 0
11 -153 -228 0
11 -169 -132 0
11 -169 -148 0
11 -169 -164 0
11 -169 -196 0
11 -169 -212 0
11 -169 -228 0
11 -185 -132 0
11 -185 -148 0
11 -185 -164 0
11 -185 -180 0
11 -185 -212 0
11 -185 -228 0
11 -201 -132 0
11 -201 -148 0
11 -201 -164 0
11 -201 -180 0
11 -201 -196 0
11 -201 -228 0
11 -217 -132 0
11 -217 -148 0
11 -217 -164 0
11 -217 -180 0
11 -217 -196 0
11 -217 -212 0
12 -121 -149 0
12 -121 -165 0
12 -121 -181 0
12 -121 -197 0
12 -121 -213 0
12 -121 -229 0
12 -137 -133 0
12 -137 -165 0
12 -137 -181 0
12 -137 -197 0
12 -137 -213 0
12 -137 -229 0
12 -153 -133 0
12 -153 -149 0
12 -153 -181 0
12 -153 -197 0
12 -153 -213 0
12 -153 -229 0
12 -169 -133 0
12 -169 -149 0
12 -169 -165 0
12 -169 -197 0
12 -169 -213 0
12 -169 -229 0
12 -185 -133 0
12 -185 -149 0
12 -185 -165 0
12 -185 -181 0
12 -185 -213 0
12 -185 -229 0
12 -201 -133 0
12 -201 -149 0
12 -201 -165 0
12 -201 -181 0
12 -201 -197 0
12 -201 -229 0
12 -217 -133 0
12 -217 -149 0
12 -217 -165 0
12 -217 -181 0
12 -217 -197 0
12 -217 -213 0
13 -121 -150 0
13 -121 -166 0
13 -121 -182 0
13 -121 -198 0
13 -121 -214 0
13 -121 -230 0
13 -137 -134 0
13 -137 -166 0
13 -137 -182 0
13 -137 -198 0
13 -137 -214 0
13 -137 -230 0
13 -153 -134 0
13 -153 -150 0
13 -153 -182 0
13 -153 -198 0
13 -153 -214 0
13 -153 -230 0
13 -169 -134 0
13 -169 -150 0
13 -169 -166 0
13 -169 -198 0
13 -169 -214 0
13 -169 -230 0
13 -185 -134 0
13 -185 -150 0
13 -185 -166 0
13 -185 -182 0
13 -185 -214 0
13 -185 -230 0
13 -201 -134 0
13 -201 -150 0
13 -201 -166 0
13 -201 -182 0
13 -201 -198 0
13 -201 -230 0
13 -217 -134 0
13 -217 -150 0
13 -217 -166 0
13 -217 -182 0
13 -217 -198 0
13 -217 -214 0
14 -121 -151 0
14 -121 -167 0
14 -121 -183 0
14 -121 -199 0
14 -121 -215 0
14 -121 -231 0
14 -137 -135 0
14 -137 -167 0
14 -137 -183 0
14 -137 -199 0
14 -137 -215 0
14 -137 -231 0
14 -153 -135 0
14 -153 -151 0
14 -153 -183 0
14 -153 -199 0
14 -153 -215 0
14 -153 -231 0
14 -169 -135 0
14 -169 -151 0
14 -169 -167 0
14 -169 -199 0
14 -169 -215 0
14 -169 -231 0
14 -185 -135 0
14 -185 -151 0
14 -185 -167 0
14 -185 -183 0
14 -185 -215 0
14 -185 -231 0
14 -201 -135 0
14 -201 -151 0
14 -201 -167 0
14 -201 -183 0
14 -201 -199 0
14 -201 -231 0
14 -217 -135 0
14 -217 -151 0
14 -217 -167 0
14 -217 -183 0
14 -217 -199 0
14 -217 -215 0
15 -121 -152 0
15 -121 -168 0
15 -121 -184 0
15 -121 -200 0
15 -121 -216 0
15 -121 -232 0
15 -137 -136 0
15 -137 -168 0
15 -137 -184 0
15 -137 -200 0
15 -137 -216 0
15 -137 -232 0
15 -153 -136 0
15 -153 -152 0
15 -153 -184 0
15 -153 -200 0
15 -153 -216 0
15 -153 -232 0
15 -169 -136 0
15 -169 -152 0
15 -169 -168 0
15 -169 -200 0
15 -169 -216 0
15 -169 -232 0
15 -185 -136 0
15 -185 -152 0
15 -185 -168 0
15 -185 -184 0
15 -185 -216 0
15 -185 -232 0
15 -201 -136 0
15 -201 -152 0
15 -201 -168 0
15 -201 -184 0
15 -201 -200 0
15 -201 -232 0
15 -217 -136 0
15 -217 -152 0
15 -217 -168 0
15 -217 -184 0
15 -217 -200 0
15 -217 -216 0
16 -122 -139 0
16 -122 -155 0
16 -122 -171 0
16 -122 -187 0
16 -122 -203 0
16 -122 -219 0
16 -138 -123 0
16 -138 -155 0
16 -138 -171 0
16 -138 -187 0
16 -138 -203 0
16 -138 -219 0
16 -154 -123 0
16 -154 -139 0
16 -154 -171 0
16 -154 -187 0
16 -154 -203 0
16 -154 -219 0
16 -170 -123 0
16 -170 -139 0
16 -170 -155 0
16 -170 -187 0
16 -170 -203 0
16 -170 -219 0
16 -186 -123 0
16 -186 -139 0
16 -186 -155 0
16 -186 -171 0
16 -186 -203 0
16 -186 -219 0
16 -202 -123 0
16 -202 -139 0
16 -202 -155 0
16 -202 -171 0
16 -202 -187 0
16 -202 -219 0
16 -218 -123 0
16 -218 -139 0
16 -218 -155 0
16 -218 -171 0
16 -218 -187 0
16 -218 -203 0
17 -122 -140 0
17 -122 -156 0
17 -122 -172 0
17 -122 -188 0
17 -122 -204 0
17 -122 -220 0
17 -138 -124 0
17 -138 -156 0
17 -138 -172 0
17 -138 -188 0
17 -138 -204 0
17 -138 -220 0
17 -154 -124 0
17 -154 -140 0
17 -154 -172 0
17 -154 -188 0
17 -154 -204 0
17 -154 -220 0
17 -170 -124 0
17 -170 -140 0
17 -170 -156 0
17 -170 -188 0
17 -170 -204 0
17 -170 -220 0
17 -186 -124 0
17 -186 -140 0
17 -186 -156 0
17 -186 -172 0
17 -186 -204 0
17 -186 -220 0
17 -202 -124 0
17 -202 -140 0
17 -202 -156 0
17 -202 -172 0
17 -202 -188 0
17 -202 -220 0
17 -218 -124 0
17 -218 -140 0
17 -218 -156 0
17 -218 -172 0
17 -218 -188 0
17 -218 -204 0
18 -122 -141 0
18 -122 -157 0
18 -122 -173 0
18 -122 -189 0
18 -122 -205 0
18 -122 -221 0
18 -138 -125 0
18 -138 -157 0
18 -138 -173 0
18 -138 -189 0
18 -138 -205 0
18 -138 -221 0
18 -154 -125 0
18 -154 -141 0
18 -154 -173 0
18 -154 -189 0
18 -154 -205 0
18 -154 -221 0
18 -170 -125 0
18 -170 -141 0
18 -170 -157 0
18 -170 -189 0
18 -170 -205 0
18 -170 -221 0
18 -186 -125 0
18 -186 -141 0
18 -186 -157 0
18 -186 -173 0
18 -186 -205 0
18 -186 -221 0
18 -202 -125 0
18 -202 -141 0
18 -202 -157 0
18 -202 -173 0
18 -202 -189 0
18 -202 -221 0
18 -218 -125 0
18 -218 -141 0
18 -218 -157 0
18 -218 -173 0
18 -218 -189 0
18 -218 -205 0
19 -122 -142 0
19 -122 -158 0
19 -122 -174 0
19 -122 -190 0
19 -122 -206 0
19 -122 -222 0
19 -138 -126 0
19 -138 -158 0
19 -138 -174 0
19 -138 -190 0
19 -138 -206 0
19 -138 -222 0
19 -154 -126 0
19 -154 -142 0
19 -154 -174 0
19 -154 -190 0
19 -154 -206 0
19 -154 -222 0
19 -170 -126 0
19 -170 -142 0
19 -170 -158 0
19 -170 -190 0
19 -170 -206 0
19 -170 -222 0
19 -186 -126 0
19 -186 -142 0
19 -186 -158 0
19 -186 -174 0
19 -186 -206 0
19 -186 -222 0
19 -202 -126 0
19 -202 -142 0
19 -202 -158 0
19 -202 -174 0
19 -202 -190 0
19 -202 -222 0
19 -218 -126 0
19 -218 -142 0
19 -218 -158 0
19 -218 -174 0
19 -218 -190 0
19 -218 -206 0
20 -122 -143 0
20 -122 -159 0
20 -122 -175 0
20 -122 -191 0
20 -122 -207 0
20 -122 -223 0
20 -138 -127 0
20 -138 -159 0
20 -138 -175 0
20 -138 -191 0
20 -138 -207 0
20 -138 -223 0
20 -154 -127 0
20 -154 -143 0
20 -154 -175 0
20 -154 -191 0
20 -154 -207 0
20 -154 -223 0
20 -170 -127 0
20 -170 -143 0
20 -170 -159 0
20 -170 -191 0
20 -170 -207 0
20 -170 -223 0
20 -186 -127 0
20 -186 -143 0
20 -186 -159 0
20 -186 -175 0
20 -186 -207 0
20 -186 -223 0
20 -202 -127 0
20 -202 -143 0
20 -202 -159 0
20 -202 -175 0
20 -202 -191 0
20 -202 -223 0
20 -218 -127 0
20 -218 -143 0
20 -218 -159 0
20 -218 -175 0
20 -218 -191 0
20 -218 -207 0
21 -122 -144 0
21 -122 -160 0
21 -122 -176 0
21 -122 -192 0
21 -122 -208 0
21 -122 -224 0
21 -138 -128 0
21 -138 -160 0
21 -138 -176 0
21 -138 -192 0
21 -138 -208 0
21 -138 -224 0
21 -154 -128 0
21 -154 -144 0
21 -154 -176 0
21 -154 -192 0
21 -154 -208 0
21 -154 -224 0
21 -170 -128 0
21 -170 -144 0
21 -170 -160 0
21 -170 -192 0
21 -170 -208 0
21 -170 -224 0
21 -186 -128 0
21 -186 -144 0
21 -186 -160 0
21 -186 -176 0
21 -186 -208 0
21 -186 -224 0
21 -202 -128 0
21 -202 -144 0
21 -202 -160 0
21 -202 -176 0
21 -202 -192 0
21 -202 -224 0
21 -218 -128 0
21 -218 -144 0
21 -218 -160 0
21 -218 -176 0
21 -218 -192 0
21 -218 -208 0
22 -122 -145 0
22 -122 -161 0
22 -122 -177 0
22 -122 -193 0
22 -122 -209 0
22 -122 -225 0
22 -138 -129 0
22 -138 -161 0
22 -138 -177 0
22 -138 -193 0
22 -138 -209 0
22 -138 -225 0
22 -154 -129 0
22 -154 -145 0
22 -154 -177 0
22 -154 -193 0
22 -154 -209 0
22 -154 -225 0
22 -170 -129 0
22 -170 -145 0
22 -170 -161 0
22 -170 -193 0
22 -170 -209 0
22 -170 -225 0
22 -186 -129 0
22 -186 -145 0
22 -186 -161 0
22 -186 -177 0
22 -186 -209 0
22 -186 -225 0
22 -202 -129 0
22 -202 -145 0
22 -202 -161 0
22 -202 -177 0
22 -202 -193 0
22 -202 -225 0
22 -218 -129 0
22 -218 -145 0
22 -218 -161 0
22 -218 -177 0
22 -218 -193 0
22 -218 -209 0
23 -122 -146 0
23 -122 -162 0
23 -122 -178 0
23 -122 -194 0
23 -122 -210 0
23 -122 -226 0
23 -138 -130 0
23 -138 -162 0
23 -138 -178 0
23 -138 -194 0
23 -138 -210 0
23 -138 -226 0
23 -154 -130 0
23 -154 -146 0
23 -154 -178 0
23 -154 -194 0
23 -154 -210 0
23 -154 -226 0
23 -170 -130 0
23 -170 -146 0
23 -170 -162 0
23 -170 -194 0
23 -170 -210 0
23 -170 -226 0
23 -186 -130 0
23 -186 -146 0
23 -186 -162 0
23 -186 -178 0
23 -186 -210 0
23 -186 -226 0
23 -202 -130 0
23 -202 -146 0
23 -202 -162 0
23 -202 -178 0
23 -202 -194 0
23 -202 -226 0
23 -218 -130 0
23 -218 -146 0
23 -218 -162 0
23 -218 -178 0
23 -218 -194 0
23 -218 -210 0
24 -122 -147 0
24 -122 -163 0
24 -122 -179 0
24 -122 -195 0
24 -122 -211 0
24 -122 -227 0
24 -138 -131 0
24 -138 -163 0
24 -138 -179 0
24 -138 -195 0
24 -138 -211 0
24 -138 -227 0
24 -154 -131 0
24 -154 -147 0
24 -154 -179 0
24 -154 -195 0
24 -154 -211 0
24 -154 -227 0
24 -170 -131 0
24 -170 -147 0
24 -170 -163 0
24 -170 -195 0
24 -170 -211 0
24 -170 -227 0
24 -186 -131 0
24 -186 -147 0
24 -186 -163 0
24 -186 -179 0
24 -186 -211 0
24 -186 -227 0
24 -202 -131 0
24 -202 -147 0
24 -202 -163 0
24 -202 -179 0
24 -202 -195 0
24 -202 -227 0
24 -218 -131 0
24 -218 -147 0
24 -218 -163 0
24 -218 -179 0
24 -218 -195 0
24 -218 -211 0
25 -122 -148 0
25 -122 -164 0
25 -122 -180 0
25 -122 -196 0
25 -122 -212 0
25 -122 -228 0
25 -138 -132 0
25 -138 -164 0
25 -138 -180 0
25 -138 -196 0
25 -138 -212 0
25 -138 -228 0
25 -154 -132 0
25 -154 -148 0
25 -154 -180 0
25 -154 -196 0
25 -154 -212 0
25 -154 -228 0
25 -170 -132 0
25 -170 -148 0
25 -170 -164 0
25 -170 -196 0
25 -170 -212 0
25 -170 -228 0
25 -186 -132 0
25 -186 -148 0
25 -186 -164 0
25 -186 -180 0
25 -186 -212 0
25 -186 -228 0
25 -202 -132 0
25 -202 -148 0
25 -202 -164 0
25 -202 -180 0
25 -202 -196 0
25 -202 -228 0
25 -218 -132 0
25 -218 -148 0
25 -218 -164 0
25 -218 -180 0
25 -218 -196 0
25 -218 -212 0
26 -122 -149 0
26 -122 -165 0
26 -122 -181 0
26 -122 -197 0
26 -122 -213 0
26 -122 -229 0
26 -138 -133 0
26 -138 -165 0
26 -138 -181 0
26 -138 -197 0
26 -138 -213 0
26 -138 -229 0
26 -154 -133 0
26 -154 -149 0
26 -154 -181 0
26 -154 -197 0
26 -154 -213 0
26 -154 -229 0
26 -170 -133 0
26 -170 -149 0
26 -170 -165 0
26 -170 -197 0
26 -170 -213 0
26 -170 -229 0
26 -186 -133 0
26 -186 -149 0
26 -186 -165 0
26 -186 -181 0
26 -186 -213 0
26 -186 -229 0
26 -202 -133 0
26 -202 -149 0
26 -202 -165 0
26 -202 -181 0
26 -202 -197 0
26 -202 -229 0
26 -218 -133 0
26 -218 -149 0
26 -218 -165 0
26 -218 -181 0
26 -218 -197 0
26 -218 -213 0
27 -122 -150 0
27 -122 -166 0
27 -122 -182 0
27 -122 -198 0
27 -122 -214 0
27 -122 -230 0
27 -138 -134 0
27 -138 -166 0
27 -138 -182 0
27 -138 -198 0
27 -138 -214 0
27 -138 -230 0
27 -154 -134 0
27 -154 -150 0
27 -154 -182 0
27 -154 -198 0
27 -154 -214 0
27 -154 -230 0
27 -170 -134 0
27 -170 -150 0
27 -170 -166 0
27 -170 -198 0
27 -170 -214 0
27 -170 -230 0
27 -186 -134 0
27 -186 -150 0
27 -186 -166 0
27 -186 -182 0
27 -186 -214 0
27 -186 -230 0
27 -202 -134 0
27 -202 -150 0
27 -202 -166 0
27 -202 -182 0
27 -202 -198 0
27 -202 -230 0
27 -218 -134 0
27 -218 -150 0
27 -218 -166 0
27 -218 -182 0
27 -218 -198 0
27 -218 -214 0
28 -122 -151 0
28 -122 -167 0
28 -122 -183 0
28 -122 -199 0
28 -122 -215 0
28 -122 -231 0
28 -138 -135 0
28 -138 -167 0
28 -138 -183 0
28 -138 -199 0
28 -138 -215 0
28 -138 -231 0
28 -154 -135 0
28 -154 -151 0
28 -154 -183 0
28 -154 -199 0
28 -154 -215 0
28 -154 -231 0
28 -170 -135 0
28 -170 -151 0
28 -170 -167 0
28 -170 -199 0
28 -170 -215 0
28 -170 -231 0
28 -186 -135 0
28 -186 -151 0
28 -186 -167 0
28 -186 -183 0
28 -186 -215 0
28 -186 -231 0
28 -202 -135 0
28 -202 -151 0
28 -202 -167 0
28 -202 -183 0
28 -202 -199 0
28 -202 -231 0
28 -218 -135 0
28 -218 -151 0
28 -218 -167 0
28 -218 -183 0
28 -218 -199 0
28 -218 -215 0
29 -122 -152 0
29 -122 -168 0
29 -122 -184 0
29 -122 -200 0
29 -122 -216 0
29 -122 -232 0
29 -138 -136 0
29 -138 -168 0
29 -138 -184 0
29 -138 -200 0
29 -138 -216 0
29 -138 -232 0
29 -154 -136 0
29 -154 -152 0
29 -154 -184 0
29 -154 -200 0
29 -154 -216 0
29 -154 -232 0
29 -170 -136 0
29 -170 -152 0
29 -170 -168 0
29 -170 -200 0
29 -170 -216 0
29 -170 -232 0
29 -186 -136 0
29 -186 -152 0
29 -186 -168 0
29 -186 -184 0
29 -186 -216 0
29 -186 -232 0
29 -202 -136 0
29 -202 -152 0
29 -202 -168 0
29 -202 -184 0
29 -202 -200 0
29 -202 -232 0
29 -218 -136 0
29 -218 -152 0
29 -218 -168 0
29 -218 -184 0
29 -218 -200 0
29 -218 -216 0
30 -123 -140 0
30 -123 -156 0
30 -123 -172 0
30 -123 -188 0
30 -123 -204 0
30 -123 -220 0
30 -139 -124 0
30 -139 -156 0
30 -139 -172 0
30 -139 -188 0
30 -139 -204 0
30 -139 -220 0
30 -155 -124 0
30 -155 -140 0
30 -155 -172 0
30 -155 -188 0
30 -155 -204 0
30 -155 -220 0
30 -171 -124 0
30 -171 -140 0
30 -171 -156 0
30 -171 -188 0
30 -171 -204 0
30 -171 -220 0
30 -187 -124 0
30 -187 -140 0
30 -187 -156 0
30 -187 -172 0
30 -187 -204 0
30 -187 -220 0
30 -203 -124 0
30 -203 -140 0
30 -203 -156 0
30 -203 -172 0
30 -203 -188 0
30 -203 -220 0
30 -219 -124 0
30 -219 -140 0
30 -219 -156 0
30 -219 -172 0
30 -219 -188 0
30 -219 -204 0
31 -123 -141 0
31 -123 -157 0
31 -123 -173 0
31 -123 -189 0
31 -123 -205 0
31 -123 -221 0
31 -139 -125 0
31 -139 -157 0
31 -139 -173 0
31 -139 -189 0
31 -139 -205 0
31 -139 -221 0
31 -155 -125 0
31 -155 -141 0
31 -155 -173 0
31 -155 -189 0
31 -155 -205 0
31 -155 -221 0
31 -171 -125 0
31 -171 -141 0
31 -171 -157 0
31 -171 -189 0
31 -171 -205 0
31 -171 -221 0
31 -187 -125 0
31 -187 -141 0
31 -187 -157 0
31 -187 -173 0
31 -187 -205 0
31 -187 -221 0
31 -203 -125 0
31 -203 -141 0
31 -203 -157 0
31 -203 -173 0
31 -203 -189 0
31 -203 -221 0
31 -219 -125 0
31 -219 -141 0
31 -219 -157 0
31 -219 -173 0
31 -219 -189 0
31 -219 -205 0
32 -123 -142 0
32 -123 -158 0
32 -123 -174 0
32 -123 -190 0
32 -123 -206 0
32 -123 -222 0
32 -139 -126 0
32 -139 -158 0
32 -139 -174 0
32 -139 -190 0
32 -139 -206 0
32 -139 -222 0
32 -155 -126 0
32 -155 -142 0
32 -155 -174 0
32 -155 -190 0
32 -155 -206 0
32 -155 -222 0
32 -171 -126 0
32 -171 -142 0
32 -171 -158 0
32 -171 -190 0
32 -171 -206 0
32 -171 -222 0
32 -187 -126 0
32 -187 -142 0
32 -187 -158 0
32 -187 -174 0
32 -187 -206 0
32 -187 -222 0
32 -203 -126 0
32 -203 -142 0
32 -203 -158 0
32 -203 -174 0
32 -203 -190 0
32 -203 -222 0
32 -219 -126 0
32 -219 -142 0
32 -219 -158 0
32 -219 -174 0
32 -219 -190 0
32 -219 -206 0
33 -123 -143 0
33 -123 -159 0
33 -123 -175 0
33 -123 -191 0
33 -123 -207 0
33 -123 -223 0
33 -139 -127 0
33 -139 -159 0
33 -139 -175 0
33 -139 -191 0
33 -139 -207 0
33 -139 -223 0
33 -155 -127 0
33 -155 -143 0
33 -155 -175 0
33 -155 -191 0
33 -155 -207 0
33 -155 -223 0
33 -171 -127 0
33 -171 -143 0
33 -171 -159 0
33 -171 -191 0
33 -171 -207 0
33 -171 -223 0
33 -187 -127 0
33 -187 -143 0
33 -187 -159 0
33 -187 -175 0
33 -187 -207 0
33 -187 -223 0
33 -203 -127 0
33 -203 -143 0
33 -203 -159 0
33 -203 -175 0
33 -203 -191 0
33 -203 -223 0
33 -219 -127 0
33 -219 -143 0
33 -219 -159 0
33 -219 -175 0
33 -219 -191 0
33 -219 -207 0
34 -123 -144 0
34 -123 -160 0
34 -123 -176 0
34 -123 -192 0
34 -123 -208 0
34 -123 -224 0
34 -139 -128 0
34 -139 -160 0
34 -139 -176 0
34 -139 -192 0
34 -139 -208 0
34 -139 -224 0
34 -155 -128 0
34 -155 -144 0
34 -155 -176 0
34 -155 -192 0
34 -155 -208 0
34 -155 -224 0
34 -171 -128 0
34 -171 -144 0
34 -171 -160 0
34 -171 -192 0
34 -171 -208 0
34 -171 -224 0
34 -187 -128 0
34 -187 -144 0
34 -187 -160 0
34 -187 -176 0
34 -187 -208 0
34 -187 -224 0
34 -203 -128 0
34 -203 -144 0
34 -203 -160 0
34 -203 -176 0
34 -203 -192 0
34 -203 -224 0
34 -219 -128 0
34 -219 -144 0
34 -219 -160 0
34 -219 -176 0
34 -219 -192 0
34 -219 -208 0
35 -123 -145 0
35 -123 -161 0
35 -123 -177 0
35 -123 -193 0
35 -123 -209 0
35 -123 -225 0
35 -139 -129 0
35 -139 -161 0
35 -139 -177 0
35 -139 -193 0
35 -139 -209 0
35 -139 -225 0
35 -155 -129 0
35 -155 -145 0
35 -155 -177 0
35 -155 -193 0
35 -155 -209 0
35 -155 -225 0
35 -171 -129 0
35 -171 -145 0
35 -171 -161 0
35 -171 -193 0
35 -171 -209 0
35 -171 -225 0
35 -187 -129 0
35 -187 -145 0
35 -187 -161 0
35 -187 -177 0
35 -187 -209 0
35 -187 -225 0
35 -203 -129 0
35 -203 -145 0
35 -203 -161 0
35 -203 -177 0
35 -203 -193 0
35 -203 -225 0
35 -219 -129 0
35 -219 -145 0
35 -219 -161 0
35 -219 -177 0
35 -219 -193 0
35 -219 -209 0
36 -123 -146 0
36 -123 -162 0
36 -123 -178 0
36 -123 -194 0
36 -123 -210 0
36 -123 -226 0
36 -139 -130 0
36 -139 -162 0
36 -139 -178 0
36 -139 -194 0
36 -139 -210 0
36 -139 -226 0
36 -155 -130 0
36 -155 -146 0
36 -155 -178 0
36 -155 -194 0
36 -155 -210 0
36 -155 -226 0
36 -171 -130 0
36 -171 -146 0
36 -171 -162 0
36 -171 -194 0
36 -171 -210 0
36 -171 -226 0
36 -187 -130 0
36 -187 -146 0
36 -187 -162 0
36 -187 -178 0
36 -187 -210 0
36 -187 -226 0
36 -203 -130 0
36 -203 -146 0
36 -203 -162 0
36 -203 -178 0
36 -203 -194 0
36 -203 -226 0
36 -219 -130 0
36 -219 -146 0
36 -219 -162 0
36 -219 -178 0
36 -219 -194 0
36 -219 -210 0
37 -123 -147 0
37 -123 -163 0
37 -123 -179 0
37 -123 -195 0
37 -123 -211 0
37 -123 -227 0
37 -139 -131 0
37 -139 -163 0
37 -139 -179 0
37 -139 -195 0
37 -139 -211 0
37 -139 -227 0
37 -155 -131 0
37 -155 -147 0
37 -155 -179 0
37 -155 -195 0
37 -155 -211 0
37 -155 -227 0
37 -171 -131 0
37 -171 -147 0
37 -171 -163 0
37 -171 -195 0
37 -171 -211 0
37 -171 -227 0
37 -187 -131 0
37 -187 -147 0
37 -187 -163 0
37 -187 -179 0
37 -187 -211 0
37 -187 -227 0
37 -203 -131 0
37 -203 -147 0
37 -203 -163 0
37 -203 -179 0
37 -203 -195 0
37 -203 -227 0
37 -219 -131 0
37 -219 -147 0
37 -219 -163 0
37 -219 -179 0
37 -219 -195 0
37 -219 -211 0
38 -123 -148 0
38 -123 -164 0
38 -123 -180 0
38 -123 -196 0
38 -123 -212 0
38 -123 -228 0
38 -139 -132 0
38 -139 -164 0
38 -139 -180 0
38 -139 -196 0
38 -139 -212 0
38 -139 -228 0
38 -155 -132 0
38 -155 -148 0
38 -155 -180 0
38 -155 -196 0
38 -155 -212 0
38 -155 -228 0
38 -171 -132 0
38 -171 -148 0
38 -171 -164 0
38 -171 -196 0
38 -171 -212 0
38 -171 -228 0
38 -187 -132 0
38 -187 -148 0
38 -187 -164 0
38 -187 -180 0
38 -187 -212 0
38 -187 -228 0
38 -203 -132 0
38 -203 -148 0
38 -203 -164 0
38 -203 -180 0
38 -203 -196 0
38 -203 -228 0
38 -219 -132 0
38 -219 -148 0
38 -219 -164 0
38 -219 -180 0
38 -219 -196 0
38 -219 -212 0
39 -123 -149 0
39 -123 -165 0
39 -123 -181 0
39 -123 -197 0
39 -123 -213 0
39 -123 -229 0
39 -139 -133 0
39 -139 -165 0
39 -139 -181 0
39 -139 -197 0
39 -139 -213 0
39 -139 -229 0
39 -155 -133 0
39 -155 -149 0
39 -155 -181 0
39 -155 -197 0
39 -155 -213 0
39 -155 -229 0
39 -171 -133 0
39 -171 -149 0
39 -171 -165 0
39 -171 -197 0
39 -171 -213 0
39 -171 -229 0
39 -187 -133 0
39 -187 -149 0
39 -187 -165 0
39 -187 -181 0
39 -187 -213 0
39 -187 -229 0
39 -203 -133 0
39 -203 -149 0
39 -203 -165 0
39 -203 -181 0
39 -203 -197 0
39 -203 -229 0
39 -219 -133 0
39 -219 -149 0
39 -219 -165 0
39 -219 -181 0
39 -219 -197 0
39 -219 -213 0
40 -123 -150 0
40 -123 -166 0
40 -123 -182 0
40 -123 -198 0
40 -123 -214 0
40 -123 -230 0
40 -139 -134 0
40 -139 -166 0
40 -139 -182 0
40 -139 -198 0
40 -139 -214 0
40 -139 -230 0
40 -155 -134 0
40 -155 -150 0
40 -155 -182 0
40 -155 -198 0
40 -155 -214 0
40 -155 -230 0
40 -171 -134 0
40 -171 -150 0
40 -171 -166 0
40 -171 -198 0
40 -171 -214 0
40 -171 -230 0
40 -187 -134 0
40 -187 -150 0
40 -187 -166 0
40 -187 -182 0
40 -187 -214 0
40 -187 -230 0
40 -203 -134 0
40 -203 -150 0
40 -203 -166 0
40 -203 -182 0
40 -203 -198 0
40 -203 -230 0
40 -219 -134 0
40 -219 -150 0
40 -219 -166 0
40 -219 -182 0
40 -219 -198 0
40 -219 -214 0
41 -123 -151 0
41 -123 -167 0
41 -123 -183 0
41 -123 -199 0
41 -123 -215 0
41 -123 -231 0
41 -139 -135 0
41 -139 -167 0
41 -139 -183 0
41 -139 -199 0
41 -139 -215 0
41 -139 -231 0
41 -155 -135 0
41 -155 -151 0
41 -155 -183 0
41 -155 -199 0
41 -155 -215 0
41 -155 -231 0
41 -171 -135 0
41 -171 -151 0
41 -171 -167 0
41 -171 -199 0
41 -171 -215 0
41 -171 -231 0
41 -187 -135 0
41 -187 -151 0
41 -187 -167 0
41 -187 -183 0
41 -187 -215 0
41 -187 -231 0
41 -203 -135 0
41 -203 -151 0
41 -203 -167 0
41 -203 -183 0
41 -203 -199 0
41 -203 -231 0
41 -219 -135 0
41 -219 -151 0
41 -219 -167 0
41 -219 -183 0
41 -219 -199 0
41 -219 -215 0
42 -123 -152 0
42 -123 -168 0
42 -123 -184 0
42 -123 -200 0
42 -123 -216 0
42 -123 -232 0
42 -139 -136 0
42 -139 -168 0
42 -139 -184 0
42 -139 -200 0
42 -139 -216 0
42 -139 -232 0
42 -155 -136 0
42 -155 -152 0
42 -155 -184 0
42 -155 -200 0
42 -155 -216 0
42 -155 -232 0
42 -171 -136 0
42 -171 -152 0
42 -171 -168 0
42 -171 -200 0
42 -171 -216 0
42 -171 -232 0
42 -187 -136 0
42 -187 -152 0
42 -187 -168 0
42 -187 -184 0
42 -187 -216 0
42 -187 -232 0
42 -203 -136 0
42 -203 -152 0
42 -203 -168 0
42 -203 -184 0
42 -203 -200 0
42 -203 -232 0
42 -219 -136 0
42 -219 -152 0
42 -219 -168 0
42 -219 -184 0
42 -219 -200 0
42 -219 -216 0
43 -124 -141 0
43 -124 -157 0
43 -124 -173 0
43 -124 -189 0
43 -124 -205 0
43 -124 -221 0
43 -140 -125 0
43 -140 -157 0
43 -140 -173 0
43 -140 -189 0
43 -140 -205 0
43 -140 -221 0
43 -156 -125 0
43 -156 -141 0
43 -156 -173 0
43 -156 -189 0
43 -156 -205 0
43 -156 -221 0
43 -172 -125 0
43 -172 -141 0
43 -172 -157 0
43 -172 -189 0
43 -172 -205 0
43 -172 -221 0
43 -188 -125 0
43 -188 -141 0
43 -188 -157 0
43 -188 -173 0
43 -188 -205 0
43 -188 -221 0
43 -204 -125 0
43 -204 -141 0
43 -204 -157 0
43 -204 -173 0
43 -204 -189 0
43 -204 -221 0
43 -220 -125 0
43 -220 -141 0
43 -220 -157 0
43 -220 -173 0
43 -220 -189 0
43 -220 -205 0
44 -124 -142 0
44 -124 -158 0
44 -124 -174 0
44 -124 -190 0
44 -124 -206 0
44 -124 -222 0
44 -140 -126 0
44 -140 -158 0
44 -140 -174 0
44 -140 -190 0
44 -140 -206 0
44 -140 -222 0
44 -156 -126 0
44 -156 -142 0
44 -156 -174 0
44 -156 -190 0
44 -156 -206 0
44 -156 -222 0
44 -172 -126 0
44 -172 -142 0
44 -172 -158 0
44 -172 -190 0
44 -172 -206 0
44 -172 -222 0
44 -188 -126 0
44 -188 -142 0
44 -188 -158 0
44 -188 -174 0
44 -188 -206 0
44 -188 -222 0
44 -204 -126 0
44 -204 -142 0
44 -204 -158 0
44 -204 -174 0
44 -204 -190 0
44 -204 -222 0
44 -220 -126 0
44 -220 -142 0
44 -220 -158 0
44 -220 -174 0
44 -220 -190 0
44 -220 -206 0
45 -124 -143 0
45 -124 -159 0
45 -124 -175 0
45 -124 -191 0
45 -124 -207 0
45 -124 -223 0
45 -140 -127 0
45 -140 -159 0
45 -140 -175 0
45 -140 -191 0
45 -140 -207 0
45 -140 -223 0
45 -156 -127 0
45 -156 -143 0
45 -156 -175 0
45 -156 -191 0
45 -156 -207 0
45 -156 -223 0
45 -172 -127 0
45 -172 -143 0
45 -172 -159 0
45 -172 -191 0
45 -172 -207 0
45 -172 -223 0
45 -188 -127 0
45 -188 -143 0
45 -188 -159 0
45 -188 -175 0
45 -188 -207 0
45 -188 -223 0
45 -204 -127 0
45 -204 -143 0
45 -204 -159 0
45 -204 -175 0
45 -204 -191 0
45 -204 -223 0
45 -220 -127 0
45 -220 -143 0
45 -220 -159 0
45 -220 -175 0
45 -220 -191 0
45 -220 -207 0
46 -124 -144 0
46 -124 -160 0
46 -124 -176 0
46 -124 -192 0
46 -124 -208 0
46 -124 -224 0
46 -140 -128 0
46 -140 -160 0
46 -140 -176 0
46 -140 -192 0
46 -140 -208 0
46 -140 -224 0
46 -156 -128 0
46 -156 -144 0
46 -156 -176 0
46 -156 -192 0
46 -156 -208 0
46 -156 -224 0
46 -172 -128 0
46 -172 -144 0
46 -172 -160 0
46 -172 -192 0
46 -172 -208 0
46 -172 -224 0
46 -188 -128 0
46 -188 -144 0
46 -188 -160 0
46 -188 -176 0
46 -188 -208 0
46 -188 -224 0
46 -204 -128 0
46 -204 -144 0
46 -204 -160 0
46 -204 -176 0
46 -204 -192 0
46 -204 -224 0
46 -220 -128 0
46 -220 -144 0
46 -220 -160 0
46 -220 -176 0
46 -220 -192 0
46 -220 -208 0
47 -124 -145 0
47 -124 -161 0
47 -124 -177 0
47 -124 -193 0
47 -124 -209 0
47 -124 -225 0
47 -140 -129 0
47 -140 -161 0
47 -140 -177 0
47 -140 -193 0
47 -140 -209 0
47 -140 -225 0
47 -156 -129 0
47 -156 -145 0
47 -156 -177 0
47 -156 -193 0
47 -156 -209 0
47 -156 -225 0
47 -172 -129 0
47 -172 -145 0
47 -172 -161 0
47 -172 -193 0
47 -172 -209 0
47 -172 -225 0
47 -188 -129 0
47 -188 -145 0
47 -188 -161 0
47 -188 -177 0
47 -188 -209 0
47 -188 -225 0
47 -204 -129 0
47 -204 -145 0
47 -204 -161 0
47 -204 -177 0
47 -204 -193 0
47 -204 -225 0
47 -220 -129 0
47 -220 -145 0
47 -220 -161 0
47 -220 -177 0
47 -220 -193 0
47 -220 -209 0
48 -124 -146 0
48 -124 -162 0
48 -124 -178 0
48 -124 -194 0
48 -124 -210 0
48 -124 -226 0
48 -140 -130 0
48 -140 -162 0
48 -140 -178 0
48 -140 -194 0
48 -140 -210 0
48 -140 -226 0
48 -156 -130 0
48 -156 -146 0
48 -156 -178 0
48 -156 -194 0
48 -156 -210 0
48 -156 -226 0
48 -172 -130 0
48 -172 -146 0
48 -172 -162 0
48 -172 -194 0
48 -172 -210 0
48 -172 -226 0
48 -188 -130 0
48 -188 -146 0
48 -188 -162 0
48 -188 -178 0
48 -188 -210 0
48 -188 -226 0
48 -204 -130 0
48 -204 -146 0
48 -204 -162 0
48 -204 -178 0
48 -204 -194 0
48 -204 -226 0
48 -220 -130 0
48 -220 -146 0
48 -220 -162 0
48 -220 -178 0
48 -220 -194 0
48 -220 -210 0
49 -124 -147 0
49 -124 -163 0
49 -124 -179 0
49 -124 -195 0
49 -124 -211 0
49 -124 -227 0
49 -140 -131 0
49 -140 -163 0
49 -140 -179 0
49 -140 -195 0
49 -140 -211 0
49 -140 -227 0
49 -156 -131 0
49 -156 -147 0
49 -156 -179 0
49 -156 -195 0
49 -156 -211 0
49 -156 -227 0
49 -172 -131 0
49 -172 -147 0
49 -172 -163 0
49 -172 -195 0
49 -172 -211 0
49 -172 -227 0
49 -188 -131 0
49 -188 -147 0
49 -188 -163 0
49 -188 -179 0
49 -188 -211 0
49 -188 -227 0
49 -204 -131 0
49 -204 -147 0
49 -204 -163 0
49 -204 -179 0
49 -204 -195 0
49 -204 -227 0
49 -220 -131 0
49 -220 -147 0
49 -220 -163 0
49 -220 -179 0
49 -220 -195 0
49 -220 -211 0
50 -124 -148 0
50 -124 -164 0
50 -124 -180 0
50 -124 -196 0
50 -124 -212 0
50 -124 -228 0
50 -140 -132 0
50 -140 -164 0
50 -140 -180 0
50 -140 -196 0
50 -140 -212 0
50 -140 -228 0
50 -156 -132 0
50 -156 -148 0
50 -156 -180 0
50 -156 -196 0
50 -156 -212 0
50 -156 -228 0
50 -172 -132 0
50 -172 -148 0
50 -172 -164 0
50 -172 -196 0
50 -172 -212 0
50 -172 -228 0
50 -188 -132 0
50 -188 -148 0
50 -188 -164 0
50 -188 -180 0
50 -188 -212 0
50 -188 -228 0
50 -204 -132 0
50 -204 -148 0
50 -204 -164 0
50 -204 -180 0
50 -204 -196 0
50 -204 -228 0
50 -220 -132 0
50 -220 -148 0
50 -220 -164 0
50 -220 -180 0
50 -220 -196 0
50 -220 -212 0
51 -124 -149 0
51 -124 -165 0
51 -124 -181 0
51 -124 -197 0
51 -124 -213 0
51 -124 -229 0
51 -140 -133 0
51 -140 -165 0
51 -140 -181 0
51 -140 -197 0
51 -140 -213 0
51 -140 -229 0
51 -156 -133 0
51 -156 -149 0
51 -156 -181 0
51 -156 -197 0
51 -156 -213 0
51 -156 -229 0
51 -172 -133 0
51 -172 -149 0
51 -172 -165 0
51 -172 -197 0
51 -172 -213 0
51 -172 -229 0
51 -188 -133 0
51 -188 -149 0
51 -188 -165 0
51 -188 -181 0
51 -188 -213 0
51 -188 -229 0
51 -204 -133 0
51 -204 -149 0
51 -204 -165 0
51 -204 -181 0
51 -204 -197 0
51 -204 -229 0
51 -220 -133 0
51 -220 -149 0
51 -220 -165 0
51 -220 -181 0
51 -220 -197 0
51 -220 -213 0
52 -124 -150 0
52 -124 -166 0
52 -124 -182 0
52 -124 -198 0
52 -124 -214 0
52 -124 -230 0
52 -140 -134 0
52 -140 -166 0
52 -140 -182 0
52 -140 -198 0
52 -140 -214 0
52 -140 -230 0
52 -156 -134 0
52 -156 -150 0
52 -156 -182 0
52 -156 -198 0
52 -156 -214 0
52 -156 -230 0
52 -172 -134 0
52 -172 -150 0
52 -172 -166 0
52 -172 -198 0
52 -172 -214 0
52 -172 -230 0
52 -188 -134 0
52 -188 -150 0
52 -188 -166 0
52 -188 -182 0
52 -188 -214 0
52 -188 -230 0
52 -204 -134 0
52 -204 -150 0
52 -204 -166 0
52 -204 -182 0
52 -204 -198 0
52 -204 -230 0
52 -220 -134 0
52 -220 -150 0
52 -220 -166 0
52 -220 -182 0
52 -220 -198 0
52 -220 -214 0
53 -124 -151 0
53 -124 -167 0
53 -124 -183 0
53 -124 -199 0
53 -124 -215 0
53 -124 -231 0
53 -140 -135 0
53 -140 -167 0
53 -140 -183 0
53 -140 -199 0
53 -140 -215 0
53 -140 -231 0
53 -156 -135 0
53 -156 -151 0
53 -156 -183 0
53 -156 -199 0
53 -156 -215 0
53 -156 -231 0
53 -172 -135 0
53 -172 -151 0
53 -172 -167 0
53 -172 -199 0
53 -172 -215 0
53 -172 -231 0
53 -188 -135 0
53 -188 -151 0
53 -188 -167 0
53 -188 -183 0
53 -188 -215 0
53 -188 -231 0
53 -204 -135 0
53 -204 -151 0
53 -204 -167 0
53 -204 -183 0
53 -204 -199 0
53 -204 -231 0
53 -220 -135 0
53 -220 -151 0
53 -220 -167 0
53 -220 -183 0
53 -220 -199 0
53 -220 -215 0
54 -124 -152 0
54 -124 -168 0
54 -124 -184 0
54 -124 -200 0
54 -124 -216 0
54 -124 -232 0
54 -140 -136 0
54 -140 -168 0
54 -140 -184 0
54 -140 -200 0
54 -140 -216 0
54 -140 -232 0
54 -156 -136 0
54 -156 -152 0
54 -156 -184 0
54 -156 -200 0
54 -156 -216 0
54 -156 -232 0
54 -172 -136 0
54 -172 -152 0
54 -172 -168 0
54 -172 -200 0
54 -172 -216 0
54 -172 -232 0
54 -188 -136 0
54 -188 -152 0
54 -188 -168 0
54 -188 -184 0
54 -188 -216 0
54 -188 -232 0
54 -204 -136 0
54 -204 -152 0
54 -204 -168 0
54 -204 -184 0
54 -204 -200 0
54 -204 -232 0
54 -220 -136 0
54 -220 -152 0
54 -220 -168 0
54 -220 -184 0
54 -220 -200 0
54 -220 -216 0
55 -125 -142 0
55 -125 -158 0
55 -125 -174 0
55 -125 -190 0
55 -125 -206 0
55 -125 -222 0
55 -141 -126 0
55 -141 -158 0
55 -141 -174 0
55 -141 -190 0
55 -141 -206 0
55 -141 -222 0
55 -157 -126 0
55 -157 -142 0
55 -157 -174 0
55 -157 -190 0
55 -157 -206 0
55 -157 -222 0
55 -173 -126 0
55 -173 -142 0
55 -173 -158 0
55 -173 -190 0
55 -173 -206 0
55 -173 -222 0
55 -189 -126 0
55 -189 -142 0
55 -189 -158 0
55 -189 -174 0
55 -189 -206 0
55 -189 -222 0
55 -205 -126 0
55 -205 -142 0
55 -205 -158 0
55 -205 -174 0
55 -205 -190 0
55 -205 -222 0
55 -221 -126 0
55 -221 -142 0
55 -221 -158 0
55 -221 -174 0
55 -221 -190 0
55 -221 -206 0
56 -125 -143 0
56 -125 -159 0
56 -125 -175 0
56 -125 -191 0
56 -125 -207 0
56 -125 -223 0
56 -141 -127 0
56 -141 -159 0
56 -141 -175 0
56 -141 -191 0
56 -141 -207 0
56 -141 -223 0
56 -157 -127 0
56 -157 -143 0
56 -157 -175 0
56 -157 -191 0
56 -157 -207 0
56 -157 -223 0
56 -173 -127 0
56 -173 -143 0
56 -173 -159 0
56 -173 -191 0
56 -173 -207 0
56 -173 -223 0
56 -189 -127 0
56 -189 -143 0
56 -189 -159 0
56 -189 -175 0
56 -189 -207 0
56 -189 -223 0
56 -205 -127 0
56 -205 -143 0
56 -205 -159 0
56 -205 -175 0
56 -205 -191 0
56 -205 -223 0
56 -221 -127 0
56 -221 -143 0
56 -221 -159 0
56 -221 -175 0
56 -221 -191 0
56 -221 -207 0
57 -125 -144 0
57 -125 -160 0
57 -125 -176 0
57 -125 -192 0
57 -125 -208 0
57 -125 -224 0
57 -141 -128 0
57 -141 -160 0
57 -141 -176 0
57 -141 -192 0
57 -141 -208 0
57 -141 -224 0
57 -157 -128 0
57 -157 -144 0
57 -157 -176 0
57 -157 -192 0
57 -157 -208 0
57 -157 -224 0
57 -173 -128 0
57 -173 -144 0
57 -173 -160 0
57 -173 -192 0
57 -173 -208 0
57 -173 -224 0
57 -189 -128 0
57 -189 -144 0
57 -189 -160 0
57 -189 -176 0
57 -189 -208 0
57 -189 -224 0
57 -205 -128 0
57 -205 -144 0
57 -205 -160 0
57 -205 -176 0
57 -205 -192 0
57 -205 -224 0
57 -221 -128 0
57 -221 -144 0
57 -221 -160 0
57 -221 -176 0
57 -221 -192 0
57 -221 -208 0
58 -125 -145 0
58 -125 -161 0
58 -125 -177 0
58 -125 -193 0
58 -125 -209 0
58 -125 -225 0
58 -141 -129 0
58 -141 -161 0
58 -141 -177 0
58 -141 -193 0
58 -141 -209 0
58 -141 -225 0
58 -157 -129 0
58 -157 -145 0
58 -157 -177 0
58 -157 -193 0
58 -157 -209 0
58 -157 -225 0
58 -173 -129 0
58 -173 -145 0
58 -173 -161 0
58 -173 -193 0
58 -173 -209 0
58 -173 -225 0
58 -189 -129 0
58 -189 -145 0
58 -189 -161 0
58 -189 -177 0
58 -189 -209 0
58 -189 -225 0
58 -205 -129 0
58 -205 -145 0
58 -205 -161 0
58 -205 -177 0
58 -205 -193 0
58 -205 -225 0
58 -221 -129 0
58 -221 -145 0
58 -221 -161 0
58 -221 -177 0
58 -221 -193 0
58 -221 -209 0
59 -125 -146 0
59 -125 -162 0
59 -125 -178 0
59 -125 -194 0
59 -125 -210 0
59 -125 -226 0
59 -141 -130 0
59 -141 -162 0
59 -141 -178 0
59 -141 -194 0
59 -141 -210 0
59 -141 -226 0
59 -157 -130 0
59 -157 -146 0
59 -157 -178 0
59 -157 -194 0
59 -157 -210 0
59 -157 -226 0
59 -173 -130 0
59 -173 -146 0
59 -173 -162 0
59 -173 -194 0
59 -173 -210 0
59 -173 -226 0
59 -189 -130 0
59 -189 -146 0
59 -189 -162 0
59 -189 -178 0
59 -189 -210 0
59 -189 -226 0
59 -205 -130 0
59 -205 -146 0
59 -205 -162 0
59 -205 -178 0
59 -205 -194 0
59 -205 -226 0
59 -221 -130 0
59 -221 -146 0
59 -221 -162 0
59 -221 -178 0
59 -221 -194 0
59 -221 -210 0
60 -125 -147 0
60 -125 -163 0
60 -125 -179 0
60 -125 -195 0
60 -125 -211 0
60 -125 -227 0
60 -141 -131 0
60 -141 -163 0
60 -141 -179 0
60 -141 -195 0
60 -141 -211 0
60 -141 -227 0
60 -157 -131 0
60 -157 -147 0
60 -157 -179 0
60 -157 -195 0
60 -157 -211 0
60 -157 -227 0
60 -173 -131 0
60 -173 -147 0
60 -173 -163 0
60 -173 -195 0
60 -173 -211 0
60 -173 -227 0
60 -189 -131 0
60 -189 -147 0
60 -189 -163 0
60 -189 -179 0
60 -189 -211 0
60 -189 -227 0
60 -205 -131 0
60 -205 -147 0
60 -205 -163 0
60 -205 -179 0
60 -205 -195 0
60 -205 -227 0
60 -221 -131 0
60 -221 -147 0
60 -221 -163 0
60 -221 -179 0
60 -221 -195 0
60 -221 -211 0
61 -125 -148 0
61 -125 -164 0
61 -125 -180 0
61 -125 -196 0
61 -125 -212 0
61 -125 -228 0
61 -141 -132 0
61 -141 -164 0
61 -141 -180 0
61 -141 -196 0
61 -141 -212 0
61 -141 -228 0
61 -157 -132 0
61 -157 -148 0
61 -157 -180 0
61 -157 -196 0
61 -157 -212 0
61 -157 -228 0
61 -173 -132 0
61 -173 -148 0
61 -173 -164 0
61 -173 -196 0
61 -173 -212 0
61 -173 -228 0
61 -189 -132 0
61 -189 -148 0
61 -189 -164 0
61 -189 -180 0
61 -189 -212 0
61 -189 -228 0
61 -205 -132 0
61 -205 -148 0
61 -205 -164 0
61 -205 -180 0
61 -205 -196 0
61 -205 -228 0
61 -221 -132 0
61 -221 -148 0
61 -221 -164 0
61 -221 -180 0
61 -221 -196 0
61 -221 -212 0
62 -125 -149 0
62 -125 -165 0
62 -125 -181 0
62 -125 -197 0
62 -125 -213 0
62 -125 -229 0
62 -141 -133 0
62 -141 -165 0
62 -141 -181 0
62 -141 -197 0
62 -141 -213 0
62 -141 -229 0
62 -157 -133 0
62 -157 -149 0
62 -157 -181 0
62 -157 -197 0
62 -157 -213 0
62 -157 -229 0
62 -173 -133 0
62 -173 -149 0
62 -173 -165 0
62 -173 -197 0
62 -173 -213 0
62 -173 -229 0
62 -189 -133 0
62 -189 -149 0
62 -189 -165 0
62 -189 -181 0
62 -189 -213 0
62 -189 -229 0
62 -205 -133 0
62 -205 -149 0
62 -205 -165 0
62 -205 -181 0
62 -205 -197 0
62 -205 -229 0
62 -221 -133 0
62 -221 -149 0
62 -221 -165 0
62 -221 -181 0
62 -221 -197 0
62 -221 -213 0
63 -125 -150 0
63 -125 -166 0
63 -125 -182 0
63 -125 -198 0
63 -125 -214 0
63 -125 -230 0
63 -141 -134 0
63 -141 -166 0
63 -141 -182 0
63 -141 -198 0
63 -141 -214 0
63 -141 -230 0
63 -157 -134 0
63 -157 -150 0
63 -157 -182 0
63 -157 -198 0
63 -157 -214 0
63 -157 -230 0
63 -173 -134 0
63 -173 -150 0
63 -173 -166 0
63 -173 -198 0
63 -173 -214 0
63 -173 -230 0
63 -189 -134 0
63 -189 -150 0
63 -189 -166 0
63 -189 -182 0
63 -189 -214 0
63 -189 -230 0
63 -205 -134 0
63 -205 -150 0
63 -205 -166 0
63 -205 -182 0
63 -205 -198 0
63 -205 -230 0
63 -221 -134 0
63 -221 -150 0
63 -221 -166 0
63 -221 -182 0
63 -221 -198 0
63 -221 -214 0
64 -125 -151 0
64 -125 -167 0
64 -125 -183 0
64 -125 -199 0
64 -125 -215 0
64 -125 -231 0
64 -141 -135 0
64 -141 -167 0
64 -141 -183 0
64 -141 -199 0
64 -141 -215 0
64 -141 -231 0
64 -157 -135 0
64 -157 -151 0
64 -157 -183 0
64 -157 -199 0
64 -157 -215 0
64 -157 -231 0
64 -173 -135 0
64 -173 -151 0
64 -173 -167 0
64 -173 -199 0
64 -173 -215 0
64 -173 -231 0
64 -189 -135 0
64 -189 -151 0
64 -189 -167 0
64 -189 -183 0
64 -189 -215 0
64 -189 -231 0
64 -205 -135 0
64 -205 -151 0
64 -205 -167 0
64 -205 -183 0
64 -205 -199 0
64 -205 -231 0
64 -221 -135 0
64 -221 -151 0
64 -221 -167 0
64 -221 -183 0
64 -221 -199 0
64 -221 -215 0
65 -125 -152 0
65 -125 -168 0
65 -125 -184 0
65 -125 -200 0
65 -125 -216 0
65 -125 -232 0
65 -141 -136 0
65 -141 -168 0
65 -141 -184 0
65 -141 -200 0
65 -141 -216 0
65 -141 -232 0
65 -157 -136 0
65 -157 -152 0
65 -157 -184 0
65 -157 -200 0
65 -157 -216 0
65 -157 -232 0
65 -173 -136 0
65 -173 -152 0
65 -173 -168 0
65 -173 -200 0
65 -173 -216 0
65 -173 -232 0
65 -189 -136 0
65 -189 -152 0
65 -189 -168 0
65 -189 -184 0
65 -189 -216 0
65 -189 -232 0
65 -205 -136 0
65 -205 -152 0
65 -205 -168 0
65 -205 -184 0
65 -205 -200 0
65 -205 -232 0
65 -221 -136 0
65 -221 -152 0
65 -221 -168 0
65 -221 -184 0
65 -221 -200 0
65 -221 -216 0
66 -126 -143 0
66 -126 -159 0
66 -126 -175 0
66 -126 -191 0
66 -126 -207 0
66 -126 -223 0
66 -142 -127 0
66 -142 -159 0
66 -142 -175 0
66 -142 -191 0
66 -142 -207 0
66 -142 -223 0
66 -158 -127 0
66 -158 -143 0
66 -158 -175 0
66 -158 -191 0
66 -158 -207 0
66 -158 -223 0
66 -174 -127 0
66 -174 -143 0
66 -174 -159 0
66 -174 -191 0
66 -174 -207 0
66 -174 -223 0
66 -190 -127 0
66 -190 -143 0
66 -190 -159 0
66 -190 -175 0
66 -190 -207 0
66 -190 -223 0
66 -206 -127 0
66 -206 -143 0
66 -206 -159 0
66 -206 -175 0
66 -206 -191 0
66 -206 -223 0
66 -222 -127 0
66 -222 -143 0
66 -222 -159 0
66 -222 -175 0
66 -222 -191 0
66 -222 -207 0
67 -126 -144 0
67 -126 -160 0
67 -126 -176 0
67 -126 -192 0
67 -126 -208 0
67 -126 -224 0
67 -142 -128 0
67 -142 -160 0
67 -142 -176 0
67 -142 -192 0
67 -142 -208 0
67 -142 -224 0
67 -158 -128 0
67 -158 -144 0
67 -158 -176 0
67 -158 -192 0
67 -158 -208 0
67 -158 -224 0
67 -174 -128 0
67 -174 -144 0
67 -174 -160 0
67 -174 -192 0
67 -174 -208 0
67 -174 -224 0
67 -190 -128 0
67 -190 -144 0
67 -190 -160 0
67 -190 -176 0
67 -190 -208 0
67 -190 -224 0
67 -206 -128 0
67 -206 -144 0
67 -206 -160 0
67 -206 -176 0
67 -206 -192 0
67 -206 -224 0
67 -222 -128 0
67 -222 -144 0
67 -222 -160 0
67 -222 -176 0
67 -222 -192 0
67 -222 -208 0
68 -126 -145 0
68 -126 -161 0
68 -126 -177 0
68 -126 -193 0
68 -126 -209 0
68 -126 -225 0
68 -142 -129 0
68 -142 -161 0
68 -142 -177 0
68 -142 -193 0
68 -142 -209 0
68 -142 -225 0
68 -158 -129 0
68 -158 -145 0
68 -158 -177 0
68 -158 -193 0
68 -158 -209 0
68 -158 -225 0
68 -174 -129 0
68 -174 -145 0
68 -174 -161 0
68 -174 -193 0
68 -174 -209 0
68 -174 -225 0
68 -190 -129 0
68 -190 -145 0
68 -190 -161 0
68 -190 -177 0
68 -190 -209 0
68 -190 -225 0
68 -206 -129 0
68 -206 -145 0
68 -206 -161 0
68 -206 -177 0
68 -206 -193 0
68 -206 -225 0
68 -222 -129 0
68 -222 -145 0
68 -222 -161 0
68 -222 -177 0
68 -222 -193 0
68 -222 -209 0
69 -126 -146 0
69 -126 -162 0
69 -126 -178 0
69 -126 -194 0
69 -126 -210 0
69 -126 -226 0
69 -142 -130 0
69 -142 -162 0
69 -142 -178 0
69 -142 -194 0
69 -142 -210 0
69 -142 -226 0
69 -158 -130 0
69 -158 -146 0
69 -158 -178 0
69 -158 -194 0
69 -158 -210 0
69 -158 -226 0
69 -174 -130 0
69 -174 -146 0
69 -174 -162 0
69 -174 -194 0
69 -174 -210 0
69 -174 -226 0
69 -190 -130 0
69 -190 -146 0
69 -190 -162 0
69 -190 -178 0
69 -190 -210 0
69 -190 -226 0
69 -206 -130 0
69 -206 -146 0
69 -206 -162 0
69 -206 -178 0
69 -206 -194 0
69 -206 -226 0
69 -222 -130 0
69 -222 -146 0
69 -222 -162 0
69 -222 -178 0
69 -222 -194 0
69 -222 -210 0
70 -126 -147 0
70 -126 -163 0
70 -126 -179 0
70 -126 -195 0
70 -126 -211 0
70 -126 -227 0
70 -142 -131 0
70 -142 -163 0
70 -142 -179 0
70 -142 -195 0
70 -142 -211 0
70 -142 -227 0
70 -158 -131 0
70 -158 -147 0
70 -158 -179 0
70 -158 -195 0
70 -158 -211 0
70 -158 -227 0
70 -174 -131 0
70 -174 -147 0
70 -174 -163 0
70 -174 -195 0
70 -174 -211 0
70 -174 -227 0
70 -190 -131 0
70 -190 -147 0
70 -190 -163 0
70 -190 -179 0
70 -190 -211 0
70 -190 -227 0
70 -206 -131 0
70 -206 -147 0
70 -206 -163 0
70 -206 -179 0
70 -206 -195 0
70 -206 -227 0
70 -222 -131 0
70 -222 -147 0
70 -222 -163 0
70 -222 -179 0
70 -222 -195 0
70 -222 -211 0
71 -126 -148 0
71 -126 -164 0
71 -126 -180 0
71 -126 -196 0
71 -126 -212 0
71 -126 -228 0
71 -142 -132 0
71 -142 -164 0
71 -142 -180 0
71 -142 -196 0
71 -142 -212 0
71 -142 -228 0
71 -158 -132 0
71 -158 -148 0
71 -158 -180 0
71 -158 -196 0
71 -158 -212 0
71 -158 -228 0
71 -174 -132 0
71 -174 -148 0
71 -174 -164 0
71 -174 -196 0
71 -174 -212 0
71 -174 -228 0
71 -190 -132 0
71 -190 -148 0
71 -190 -164 0
71 -190 -180 0
71 -190 -212 0
71 -190 -228 0
71 -206 -132 0
71 -206 -148 0
71 -206 -164 0
71 -206 -180 0
71 -206 -196 0
71 -206 -228 0
71 -222 -132 0
71 -222 -148 0
71 -222 -164 0
71 -222 -180 0
71 -222 -196 0
71 -222 -212 0
72 -126 -149 0
72 -126 -165 0
72 -126 -181 0
72 -126 -197 0
72 -126 -213 0
72 -126 -229 0
72 -142 -133 0
72 -142 -165 0
72 -142 -181 0
72 -142 -197 0
72 -142 -213 0
72 -142 -229 0
72 -158 -133 0
72 -158 -149 0
72 -158 -181 0
72 -158 -197 0
72 -158 -213 0
72 -158 -229 0
72 -174 -133 0
72 -174 -149 0
72 -174 -165 0
72 -174 -197 0
72 -174 -213 0
72 -174 -229 0
72 -190 -133 0
72 -190 -149 0
72 -190 -165 0
72 -190 -181 0
72 -190 -213 0
72 -190 -229 0
72 -206 -133 0
72 -206 -149 0
72 -206 -165 0
72 -206 -181 0
72 -206 -197 0
72 -206 -229 0
72 -222 -133 0
72 -222 -149 0
72 -222 -165 0
72 -222 -181 0
72 -222 -197 0
72 -222 -213 0
73 -126 -150 0
73 -126 -166 0
73 -126 -182 0
73 -126 -198 0
73 -126 -214 0
73 -126 -230 0
73 -142 -134 0
73 -142 -166 0
73 -142 -182 0
73 -142 -198 0
73 -142 -214 0
73 -142 -230 0
73 -158 -134 0
73 -158 -150 0
73 -158 -182 0
73 -158 -198 0
73 -158 -214 0
73 -158 -230 0
73 -174 -134 0
73 -174 -150 0
73 -174 -166 0
73 -174 -198 0
73 -174 -214 0
73 -174 -230 0
73 -190 -134 0
73 -190 -150 0
73 -190 -166 0
73 -190 -182 0
73 -190 -214 0
73 -190 -230 0
73 -206 -134 0
73 -206 -150 0
73 -206 -166 0
73 -206 -182 0
73 -206 -198 0
73 -206 -230 0
73 -222 -134 0
73 -222 -150 0
73 -222 -166 0
73 -222 -182 0
73 -222 -198 0
73 -222 -214 0
74 -126 -151 0
74 -126 -167 0
74 -126 -183 0
74 -126 -199 0
74 -126 -215 0
74 -126 -231 0
74 -142 -135 0
74 -142 -167 0
74 -142 -183 0
74 -142 -199 0
74 -142 -215 0
74 -142 -231 0
74 -158 -135 0
74 -158 -151 0
74 -158 -183 0
74 -158 -199 0
74 -158 -215 0
74 -158 -231 0
74 -174 -135 0
74 -174 -151 0
74 -174 -167 0
74 -174 -199 0
74 -174 -215 0
74 -174 -231 0
74 -190 -135 0
74 -190 -151 0
74 -190 -167 0
74 -190 -183 0
74 -190 -215 0
74 -190 -231 0
74 -206 -135 0
74 -206 -151 0
74 -206 -167 0
74 -206 -183 0
74 -206 -199 0
74 -206 -231 0
74 -222 -135 0
74 -222 -151 0
74 -222 -167 0
74 -222 -183 0
74 -222 -199 0
74 -222 -215 0
75 -126 -152 0
75 -126 -168 0
75 -126 -184 0
75 -126 -200 0
75 -126 -216 0
75 -126 -232 0
75 -142 -136 0
75 -142 -168 0
75 -142 -184 0
75 -142 -200 0
75 -142 -216 0
75 -142 -232 0
75 -158 -136 0
75 -158 -152 0
75 -158 -184 0
75 -158 -200 0
75 -158 -216 0
75 -158 -232 0
75 -174 -136 0
75 -174 -152 0
75 -174 -168 0
75 -174 -200 0
75 -174 -216 0
75 -174 -232 0
75 -190 -136 0
75 -190 -152 0
75 -190 -168 0
75 -190 -184 0
75 -190 -216 0
75 -190 -232 0
75 -206 -136 0
75 -206 -152 0
75 -206 -168 0
75 -206 -184 0
75 -206 -200 0
75 -206 -232 0
75 -222 -136 0
75 -222 -152 0
75 -222 -168 0
75 -222 -184 0
75 -222 -200 0
75 -222 -216 0
76 -127 -144 0
76 -127 -160 0
76 -127 -176 0
76 -127 -192 0
76 -127 -208 0
76 -127 -224 0
76 -143 -128 0
76 -143 -160 0
76 -143 -176 0
76 -143 -192 0
76 -143 -208 0
76 -143 -224 0
76 -159 -128 0
76 -159 -144 0
76 -159 -176 0
76 -159 -192 0
76 -159 -208 0
76 -159 -224 0
76 -175 -128 0
76 -175 -144 0
76 -175 -160 0
76 -175 -192 0
76 -175 -208 0
76 -175 -224 0
76 -191 -128 0
76 -191 -144 0
76 -191 -160 0
76 -191 -176 0
76 -191 -208 0
76 -191 -224 0
76 -207 -128 0
76 -207 -144 0
76 -207 -160 0
76 -207 -176 0
76 -207 -192 0
76 -207 -224 0
76 -223 -128 0
76 -223 -144 0
76 -223 -160 0
76 -223 -176 0
76 -223 -192 0
76 -223 -208 0
77 -127 -145 0
77 -127 -161 0
77 -127 -177 0
77 -127 -193 0
77 -127 -209 0
77 -127 -225 0
77 -143 -129 0
77 -143 -161 0
77 -143 -177 0
77 -143 -193 0
77 -143 -209 0
77 -143 -225 0
77 -159 -129 0
77 -159 -145 0
77 -159 -177 0
77 -159 -193 0
77 -159 -209 0
77 -159 -225 0
77 -175 -129 0
77 -175 -145 0
77 -175 -161 0
77 -175 -193 0
77 -175 -209 0
77 -175 -225 0
77 -191 -129 0
77 -191 -145 0
77 -191 -161 0
77 -191 -177 0
77 -191 -209 0
77 -191 -225 0
77 -207 -129 0
77 -207 -145 0
77 -207 -161 0
77 -207 -177 0
77 -207 -193 0
77 -207 -225 0
77 -223 -129 0
77 -223 -145 0
77 -223 -161 0
77 -223 -177 0
77 -223 -193 0
77 -223 -209 0
78 -127 -146 0
78 -127 -162 0
78 -127 -178 0
78 -127 -194 0
78 -127 -210 0
78 -127 -226 0
78 -143 -130 0
78 -143 -162 0
78 -143 -178 0
78 -143 -194 0
78 -143 -210 0
78 -143 -226 0
78 -159 -130 0
78 -159 -146 0
78 -159 -178 0
78 -159 -194 0
78 -159 -210 0
78 -159 -226 0
78 -175 -130 0
78 -175 -146 0
78 -175 -162 0
78 -175 -194 0
78 -175 -210 0
78 -175 -226 0
78 -191 -130 0
78 -191 -146 0
78 -191 -162 0
78 -191 -178 0
78 -191 -210 0
78 -191 -226 0
78 -207 -130 0
78 -207 -146 0
78 -207 -162 0
78 -207 -178 0
78 -207 -194 0
78 -207 -226 0
78 -223 -130 0
78 -223 -146 0
78 -223 -162 0
78 -223 -178 0
78 -223 -194 0
78 -223 -210 0
79 -127 -147 0
79 -127 -163 0
79 -127 -179 0
79 -127 -195 0
79 -127 -211 0
79 -127 -227 0
79 -143 -131 0
79 -143 -163 0
79 -143 -179 0
79 -143 -195 0
79 -143 -211 0
79 -143 -227 0
79 -159 -131 0
79 -159 -147 0
79 -159 -179 0
79 -159 -195 0
79 -159 -211 0
79 -159 -227 0
79 -175 -131 0
79 -175 -147 0
79 -175 -163 0
79 -175 -195 0
79 -175 -211 0
79 -175 -227 0
79 -191 -131 0
79 -191 -147 0
79 -191 -163 0
79 -191 -179 0
79 -191 -211 0
79 -191 -227 0
79 -207 -131 0
79 -207 -147 0
79 -207 -163 0
79 -207 -179 0
79 -207 -195 0
79 -207 -227 0
79 -223 -131 0
79 -223 -147 0
79 -223 -163 0
79 -223 -179 0
79 -223 -195 0
79 -223 -211 0
80 -127 -148 0
80 -127 -164 0
80 -127 -180 0
80 -127 -196 0
80 -127 -212 0
80 -127 -228 0
80 -143 -132 0
80 -143 -164 0
80 -143 -180 0
80 -143 -196 0
80 -143 -212 0
80 -143 -228 0
80 -159 -132 0
80 -159 -148 0
80 -159 -180 0
80 -159 -196 0
80 -159 -212 0
80 -159 -228 0
80 -175 -132 0
80 -175 -148 0
80 -175 -164 0
80 -175 -196 0
80 -175 -212 0
80 -175 -228 0
80 -191 -132 0
80 -191 -148 0
80 -191 -164 0
80 -191 -180 0
80 -191 -212 0
80 -191 -228 0
80 -207 -132 0
80 -207 -148 0
80 -207 -164 0
80 -207 -180 0
80 -207 -196 0
80 -207 -228 0
80 -223 -132 0
80 -223 -148 0
80 -223 -164 0
80 -223 -180 0
80 -223 -196 0
80 -223 -212 0
81 -127 -149 0
81 -127 -165 0
81 -127 -181 0
81 -127 -197 0
81 -127 -213 0
81 -127 -229 0
81 -143 -133 0
81 -143 -165 0
81 -143 -181 0
81 -143 -197 0
81 -143 -213 0
81 -143 -229 0
81 -159 -133 0
81 -159 -149 0
81 -159 -181 0
81 -159 -197 0
81 -159 -213 0
81 -159 -229 0
81 -175 -133 0
81 -175 -149 0
81 -175 -165 0
81 -175 -197 0
81 -175 -213 0
81 -175 -229 0
81 -191 -133 0
81 -191 -149 0
81 -191 -165 0
81 -191 -181 0
81 -191 -213 0
81 -191 -229 0
81 -207 -133 0
81 -207 -149 0
81 -207 -165 0
81 -207 -181 0
81 -207 -197 0
81 -207 -229 0
81 -223 -133 0
81 -223 -149 0
81 -223 -165 0
81 -223 -181 0
81 -223 -197 0
81 -223 -213 0
82 -127 -150 0
82 -127 -166 0
82 -127 -182 0
82 -127 -198 0
82 -127 -214 0
82 -127 -230 0
82 -143 -134 0
82 -143 -166 0
82 -143 -182 0
82 -143 -198 0
82 -143 -214 0
82 -143 -230 0
82 -159 -134 0
82 -159 -150 0
82 -159 -182 0
82 -159 -198 0
82 -159 -214 0
82 -159 -230 0
82 -175 -134 0
82 -175 -150 0
82 -175 -166 0
82 -175 -198 0
82 -175 -214 0
82 -175 -230 0
82 -191 -134 0
82 -191 -150 0
82 -191 -166 0
82 -191 -182 0
82 -191 -214 0
82 -191 -230 0
82 -207 -134 0
82 -207 -150 0
82 -207 -166 0
82 -207 -182 0
82 -207 -198 0
82 -207 -230 0
82 -223 -134 0
82 -223 -150 0
82 -223 -166 0
82 -223 -182 0
82 -223 -198 0
82 -223 -214 0
83 -127 -151 0
83 -127 -167 0
83 -127 -183 0
83 -127 -199 0
83 -127 -215 0
83 -127 -231 0
83 -143 -135 0
83 -143 -167 0
83 -143 -183 0
83 -143 -199 0
83 -143 -215 0
83 -143 -231 0
83 -159 -135 0
83 -159 -151 0
83 -159 -183 0
83 -159 -199 0
83 -159 -215 0
83 -159 -231 0
83 -175 -135 0
83 -175 -151 0
83 -175 -167 0
83 -175 -199 0
83 -175 -215 0
83 -175 -231 0
83 -191 -135 0
83 -191 -151 0
83 -191 -167 0
83 -191 -183 0
83 -191 -215 0
83 -191 -231 0
83 -207 -135 0
83 -207 -151 0
83 -207 -167 0
83 -207 -183 0
83 -207 -199 0
83 -207 -231 0
83 -223 -135 0
83 -223 -151 0
83 -223 -167 0
83 -223 -183 0
83 -223 -199 0
83 -223 -215 0
84 -127 -152 0
84 -127 -168 0
84 -127 -184 0
84 -127 -200 0
84 -127 -216 0
84 -127 -232 0
84 -143 -136 0
84 -143 -168 0
84 -143 -184 0
84 -143 -200 0
84 -143 -216 0
84 -143 -232 0
84 -159 -136 0
84 -159 -152 0
84 -159 -184 0
84 -159 -200 0
84 -159 -216 0
84 -159 -232 0
84 -175 -136 0
84 -175 -152 0
84 -175 -168 0
84 -175 -200 0
84 -175 -216 0
84 -175 -232 0
84 -191 -136 0
84 -191 -152 0
84 -191 -168 0
84 -191 -184 0
84 -191 -216 0
84 -191 -232 0
84 -207 -136 0
84 -207 -152 0
84 -207 -168 0
84 -207 -184 0
84 -207 -200 0
84 -207 -232 0
84 -223 -136 0
84 -223 -152 0
84 -223 -168 0
84 -223 -184 0
84 -223 -200 0
84 -223 -216 0
85 -128 -145 0
85 -128 -161 0
85 -128 -177 0
85 -128 -193 0
85 -128 -209 0
85 -128 -225 0
85 -144 -129 0
85 -144 -161 0
85 -144 -177 0
85 -144 -193 0
85 -144 -209 0
85 -144 -225 0
85 -160 -129 0
85 -160 -145 0
85 -160 -177 0
85 -160 -193 0
85 -160 -209 0
85 -160 -225 0
85 -176 -129 0
85 -176 -145 0
85 -176 -161 0
85 -176 -193 0
85 -176 -209 0
85 -176 -225 0
85 -192 -129 0
85 -192 -145 0
85 -192 -161 0
85 -192 -177 0
85 -192 -209 0
85 -192 -225 0
85 -208 -129 0
85 -208 -145 0
85 -208 -161 0
85 -208 -177 0
85 -208 -193 0
85 -208 -225 0
85 -224 -129 0
85 -224 -145 0
85 -224 -161 0
85 -224 -177 0
85 -224 -193 0
85 -224 -209 0
86 -128 -146 0
86 -128 -162 0
86 -128 -178 0
86 -128 -194 0
86 -128 -210 0
86 -128 -226 0
86 -144 -130 0
86 -144 -162 0
86 -144 -178 0
86 -144 -194 0
86 -144 -210 0
86 -144 -226 0
86 -160 -130 0
86 -160 -146 0
86 -160 -178 0
86 -160 -194 0
86 -160 -210 0
86 -160 -226 0
86 -176 -130 0
86 -176 -146 0
86 -176 -162 0
86 -176 -194 0
86 -176 -210 0
86 -176 -226 0
86 -192 -130 0
86 -192 -146 0
86 -192 -162 0
86 -192 -178 0
86 -192 -210 0
86 -192 -226 0
86 -208 -130 0
86 -208 -146 0
86 -208 -162 0
86 -208 -178 0
86 -208 -194 0
86 -208 -226 0
86 -224 -130 0
86 -224 -146 0
86 -224 -162 0
86 -224 -178 0
86 -224 -194 0
86 -224 -210 0
87 -128 -147 0
87 -128 -163 0
87 -128 -179 0
87 -128 -195 0
87 -128 -211 0
87 -128 -227 0
87 -144 -131 0
87 -144 -163 0
87 -144 -179 0
87 -144 -195 0
87 -144 -211 0
87 -144 -227 0
87 -160 -131 0
87 -160 -147 0
87 -160 -179 0
87 -160 -195 0
87 -160 -211 0
87 -160 -227 0
87 -176 -131 0
87 -176 -147 0
87 -176 -163 0
87 -176 -195 0
87 -176 -211 0
87 -176 -227 0
87 -192 -131 0
87 -192 -147 0
87 -192 -163 0
87 -192 -179 0
87 -192 -211 0
87 -192 -227 0
87 -208 -131 0
87 -208 -147 0
87 -208 -163 0
87 -208 -179 0
87 -208 -195 0
87 -208 -227 0
87 -224 -131 0
87 -224 -147 0
87 -224 -163 0
87 -224 -179 0
87 -224 -195 0
87 -224 -211 0
88 -128 -148 0
88 -128 -164 0
88 -128 -180 0
88 -128 -196 0
88 -128 -212 0
88 -128 -228 0
88 -144 -132 0
88 -144 -164 0
88 -144 -180 0
88 -144 -196 0
88 -144 -212 0
88 -144 -228 0
88 -160 -132 0
88 -160 -148 0
88 -160 -180 0
88 -160 -196 0
88 -160 -212 0
88 -160 -228 0
88 -176 -132 0
88 -176 -148 0
88 -176 -164 0
88 -176 -196 0
88 -176 -212 0
88 -176 -228 0
88 -192 -132 0
88 -192 -148 0
88 -192 -164 0
88 -192 -180 0
88 -192 -212 0
88 -192 -228 0
88 -208 -132 0
88 -208 -148 0
88 -208 -164 0
88 -208 -180 0
88 -208 -196 0
88 -208 -228 0
88 -224 -132 0
88 -224 -148 0
88 -224 -164 0
88 -224 -180 0
88 -224 -196 0
88 -224 -212 0
89 -128 -149 0
89 -128 -165 0
89 -128 -181 0
89 -128 -197 0
89 -128 -213 0
89 -128 -229 0
89 -144 -133 0
89 -144 -165 0
89 -144 -181 0
89 -144 -197 0
89 -144 -213 0
89 -144 -229 0
89 -160 -133 0
89 -160 -149 0
89 -160 -181 0
89 -160 -197 0
89 -160 -213 0
89 -160 -229 0
89 -176 -133 0
89 -176 -149 0
89 -176 -165 0
89 -176 -197 0
89 -176 -213 0
89 -176 -229 0
89 -192 -133 0
89 -192 -149 0
89 -192 -165 0
89 -192 -181 0
89 -192 -213 0
89 -192 -229 0
89 -208 -133 0
89 -208 -149 0
89 -208 -165 0
89 -208 -181 0
89 -208 -197 0
89 -208 -229 0
89 -224 -133 0
89 -224 -149 0
89 -224 -165 0
89 -224 -181 0
89 -224 -197 0
89 -224 -213 0
90 -128 -150 0
90 -128 -166 0
90 -128 -182 0
90 -128 -198 0
90 -128 -214 0
90 -128 -230 0
90 -144 -134 0
90 -144 -166 0
90 -144 -182 0
90 -144 -198 0
90 -144 -214 0
90 -144 -230 0
90 -160 -134 0
90 -160 -150 0
90 -160 -182 0
90 -160 -198 0
90 -160 -214 0
90 -160 -230 0
90 -176 -134 0
90 -176 -150 0
90 -176 -166 0
90 -176 -198 0
90 -176 -214 0
90 -176 -230 0
90 -192 -134 0
90 -192 -150 0
90 -192 -166 0
90 -192 -182 0
90 -192 -214 0
90 -192 -230 0
90 -208 -134 0
90 -208 -150 0
90 -208 -166 0
90 -208 -182 0
90 -208 -198 0
90 -208 -230 0
90 -224 -134 0
90 -224 -150 0
90 -224 -166 0
90 -224 -182 0
90 -224 -198 0
90 -224 -214 0
91 -128 -151 0
91 -128 -167 0
91 -128 -183 0
91 -128 -199 0
91 -128 -215 0
91 -128 -231 0
91 -144 -135 0
91 -144 -167 0
91 -144 -183 0
91 -144 -199 0
91 -144 -215 0
91 -144 -231 0
91 -160 -135 0
91 -160 -151 0
91 -160 -183 0
91 -160 -199 0
91 -160 -215 0
91 -160 -231 0
91 -176 -135 0
91 -176 -151 0
91 -176 -167 0
91 -176 -199 0
91 -176 -215 0
91 -176 -231 0
91 -192 -135 0
91 -192 -151 0
91 -192 -167 0
91 -192 -183 0
91 -192 -215 0
91 -192 -231 0
91 -208 -135 0
91 -208 -151 0
91 -208 -167 0
91 -208 -183 0
91 -208 -199 0
91 -208 -231 0
91 -224 -135 0
91 -224 -151 0
91 -224 -167 0
91 -224 -183 0
91 -224 -199 0
91 -224 -215 0
92 -128 -152 0
92 -128 -168 0
92 -128 -184 0
92 -128 -200 0
92 -128 -216 0
92 -128 -232 0
92 -144 -136 0
92 -144 -168 0
92 -144 -184 0
92 -144 -200 0
92 -144 -216 0
92 -144 -232 0
92 -160 -136 0
92 -160 -152 0
92 -160 -184 0
92 -160 -200 0
92 -160 -216 0
92 -160 -232 0
92 -176 -136 0
92 -176 -152 0
92 -176 -168 0
92 -176 -200 0
92 -176 -216 0
92 -176 -232 0
92 -192 -136 0
92 -192 -152 0
92 -192 -168 0
92 -192 -184 0
92 -192 -216 0
92 -192 -232 0
92 -208 -136 0
92 -208 -152 0
92 -208 -168 0
92 -208 -184 0
92 -208 -200 0
92 -208 -232 0
92 -224 -136 0
92 -224 -152 0
92 -224 -168 0
92 -224 -184 0
92 -224 -200 0
92 -224 -216 0
93 -129 -146 0
93 -129 -162 0
93 -129 -178 0
93 -129 -194 0
93 -129 -210 0
93 -129 -226 0
93 -145 -130 0
93 -145 -162 0
93 -145 -178 0
93 -145 -194 0
93 -145 -210 0
93 -145 -226 0
93 -161 -130 0
93 -161 -146 0
93 -161 -178 0
93 -161 -194 0
93 -161 -210 0
93 -161 -226 0
93 -177 -130 0
93 -177 -146 0
93 -177 -162 0
93 -177 -194 0
93 -177 -210 0
93 -177 -226 0
93 -193 -130 0
93 -193 -146 0
93 -193 -162 0
93 -193 -178 0
93 -193 -210 0
93 -193 -226 0
93 -209 -130 0
93 -209 -146 0
93 -209 -162 0
93 -209 -178 0
93 -209 -194 0
93 -209 -226 0
93 -225 -130 0
93 -225 -146 0
93 -225 -162 0
93 -225 -178 0
93 -225 -194 0
93 -225 -210 0
94 -129 -147 0
94 -129 -163 0
94 -129 -179 0
94 -129 -195 0
94 -129 -211 0
94 -129 -227 0
94 -145 -131 0
94 -145 -163 0
94 -145 -179 0
94 -145 -195 0
94 -145 -211 0
94 -145 -227 0
94 -161 -131 0
94 -161 -147 0
94 -161 -179 0
94 -161 -195 0
94 -161 -211 0
94 -161 -227 0
94 -177 -131 0
94 -177 -147 0
94 -177 -163 0
94 -177 -195 0
94 -177 -211 0
94 -177 -227 0
94 -193 -131 0
94 -193 -147 0
94 -193 -163 0
94 -193 -179 0
94 -193 -211 0
94 -193 -227 0
94 -209 -131 0
94 -209 -147 0
94 -209 -163 0
94 -209 -179 0
94 -209 -195 0
94 -209 -227 0
94 -225 -131 0
94 -225 -147 0
94 -225 -163 0
94 -225 -179 0
94 -225 -195 0
94 -225 -211 0
95 -129 -148 0
95 -129 -164 0
95 -129 -180 0
95 -129 -196 0
95 -129 -212 0
95 -129 -228 0
95 -145 -132 0
95 -145 -164 0
95 -145 -180 0
95 -145 -196 0
95 -145 -212 0
95 -145 -228 0
95 -161 -132 0
95 -161 -148 0
95 -161 -180 0
95 -161 -196 0
95 -161 -212 0
95 -161 -228 0
95 -177 -132 0
95 -177 -148 0
95 -177 -164 0
95 -177 -196 0
95 -177 -212 0
95 -177 -228 0
95 -193 -132 0
95 -193 -148 0
95 -193 -164 0
95 -193 -180 0
95 -193 -212 0
95 -193 -228 0
95 -209 -132 0
95 -209 -148 0
95 -209 -164 0
95 -209 -180 0
95 -209 -196 0
95 -209 -228 0
95 -225 -132 0
95 -225 -148 0
95 -225 -164 0
95 -225 -180 0
95 -225 -196 0
95 -225 -212 0
96 -129 -149 0
96 -129 -165 0
96 -129 -181 0
96 -129 -197 0
96 -129 -213 0
96 -129 -229 0
96 -145 -133 0
96 -145 -165 0
96 -145 -181 0
96 -145 -197 0
96 -145 -213 0
96 -145 -229 0
96 -161 -133 0
96 -161 -149 0
96 -161 -181 0
96 -161 -197 0
96 -161 -213 0
96 -161 -229 0
96 -177 -133 0
96 -177 -149 0
96 -177 -165 0
96 -177 -197 0
96 -177 -213 0
96 -177 -229 0
96 -193 -133 0
96 -193 -149 0
96 -193 -165 0
96 -193 -181 0
96 -193 -213 0
96 -193 -229 0
96 -209 -133 0
96 -209 -149 0
96 -209 -165 0
96 -209 -181 0
96 -209 -197 0
96 -209 -229 0
96 -225 -133 0
96 -225 -149 0
96 -225 -165 0
96 -225 -181 0
96 -225 -197 0
96 -225 -213 0
97 -129 -150 0
97 -129 -166 0
97 -129 -182 0
97 -129 -198 0
97 -129 -214 0
97 -129 -230 0
97 -145 -134 0
97 -145 -166 0
97 -145 -182 0
97 -145 -198 0
97 -145 -214 0
97 -145 -230 0
97 -161 -134 0
97 -161 -150 0
97 -161 -182 0
97 -161 -198 0
97 -161 -214 0
97 -161 -230 0
97 -177 -134 0
97 -177 -150 0
97 -177 -166 0
97 -177 -198 0
97 -177 -214 0
97 -177 -230 0
97 -193 -134 0
97 -193 -150 0
97 -193 -166 0
97 -193 -182 0
97 -193 -214 0
97 -193 -230 0
97 -209 -134 0
97 -209 -150 0
97 -209 -166 0
97 -209 -182 0
97 -209 -198 0
97 -209 -230 0
97 -225 -134 0
97 -225 -150 0
97 -225 -166 0
97 -225 -182 0
97 -225 -198 0
97 -225 -214 0
98 -129 -151 0
98 -129 -167 0
98 -129 -183 0
98 -129 -199 0
98 -129 -215 0
98 -129 -231 0
98 -145 -135 0
98 -145 -167 0
98 -145 -183 0
98 -145 -199 0
98 -145 -215 0
98 -145 -231 0
98 -161 -135 0
98 -161 -151 0
98 -161 -183 0
98 -161 -199 0
98 -161 -215 0
98 -161 -231 0
98 -177 -135 0
98 -177 -151 0
98 -177 -167 0
98 -177 -199 0
98 -177 -215 0
98 -177 -231 0
98 -193 -135 0
98 -193 -151 0
98 -193 -167 0
98 -193 -183 0
98 -193 -215 0
98 -193 -231 0
98 -209 -135 0
98 -209 -151 0
98 -209 -167 0
98 -209 -183 0
98 -209 -199 0
98 -209 -231 0
98 -225 -135 0
98 -225 -151 0
98 -225 -167 0
98 -225 -183 0
98 -225 -199 0
98 -225 -215 0
99 -129 -152 0
99 -129 -168 0
99 -129 -184 0
99 -129 -200 0
99 -129 -216 0
99 -129 -232 0
99 -145 -136 0
99 -145 -168 0
99 -145 -184 0
99 -145 -200 0
99 -145 -216 0
99 -145 -232 0
99 -161 -136 0
99 -161 -152 0
99 -161 -184 0
99 -161 -200 0
99 -161 -216 0
99 -161 -232 0
99 -177 -136 0
99 -177 -152 0
99 -177 -168 0
99 -177 -200 0
99 -177 -216 0
99 -177 -232 0
99 -193 -136 0
99 -193 -152 0
99 -193 -168 0
99 -193 -184 0
99 -193 -216 0
99 -193 -232 0
99 -209 -136 0
99 -209 -152 0
99 -209 -168 0
99 -209 -184 0
99 -209 -200 0
99 -209 -232 0
99 -225 -136 0
99 -225 -152 0
99 -225 -168 0
99 -225 -184 0
99 -225 -200 0
99 -225 -216 0
100 -130 -147 0
100 -130 -163 0
100 -130 -179 0
100 -130 -195 0
100 -130 -211 0
100 -130 -227 0
100 -146 -131 0
100 -146 -163 0
100 -146 -179 0
100 -146 -195 0
100 -146 -211 0
100 -146 -227 0
100 -162 -131 0
100 -162 -147 0
100 -162 -179 0
100 -162 -195 0
100 -162 -211 0
100 -162 -227 0
100 -178 -131 0
100 -178 -147 0
100 -178 -163 0
100 -178 -195 0
100 -178 -211 0
100 -178 -227 0
100 -194 -131 0
100 -194 -147 0
100 -194 -163 0
100 -194 -179 0
100 -194 -211 0
100 -194 -227 0
100 -210 -131 0
100 -210 -147 0
100 -210 -163 0
100 -210 -179 0
100 -210 -195 0
100 -210 -227 0
100 -226 -131 0
100 -226 -147 0
100 -226 -163 0
100 -226 -179 0
100 -226 -195 0
100 -226 -211 0
101 -130 -148 0
101 -130 -164 0
101 -130 -180 0
101 -130 -196 0
101 -130 -212 0
101 -130 -228 0
101 -146 -132 0
101 -146 -164 0
101 -146 -180 0
101 -146 -196 0
101 -146 -212 0
101 -146 -228 0
101 -162 -132 0
101 -162 -148 0
101 -162 -180 0
101 -162 -196 0
101 -162 -212 0
101 -162 -228 0
101 -178 -132 0
101 -178 -148 0
101 -178 -164 0
101 -178 -196 0
101 -178 -212 0
101 -178 -228 0
101 -194 -132 0
101 -194 -148 0
101 -194 -164 0
101 -194 -180 0
101 -194 -212 0
101 -194 -228 0
101 -210 -132 0
101 -210 -148 0
101 -210 -164 0
101 -210 -180 0
101 -210 -196 0
101 -210 -228 0
101 -226 -132 0
101 -226 -148 0
101 -226 -164 0
101 -226 -180 0
101 -226 -196 0
101 -226 -212 0
102 -130 -149 0
102 -130 -165 0
102 -130 -181 0
102 -130 -197 0
102 -130 -213 0
102 -130 -229 0
102 -146 -133 0
102 -146 -165 0
102 -146 -181 0
102 -146 -197 0
102 -146 -213 0
102 -146 -229 0
102 -162 -133 0
102 -162 -149 0
102 -162 -181 0
102 -162 -197 0
102 -162 -213 0
102 -162 -229 0
102 -178 -133 0
102 -178 -149 0
102 -178 -165 0
102 -178 -197 0
102 -178 -213 0
102 -178 -229 0
102 -194 -133 0
102 -194 -149 0
102 -194 -165 0
102 -194 -181 0
102 -194 -213 0
102 -194 -229 0
102 -210 -133 0
102 -210 -149 0
102 -210 -165 0
102 -210 -181 0
102 -210 -197 0
102 -210 -229 0
102 -226 -133 0
102 -226 -149 0
102 -226 -165 0
102 -226 -181 0
102 -226 -197 0
102 -226 -213 0
103 -130 -150 0
103 -130 -166 0
103 -130 -182 0
103 -130 -198 0
103 -130 -214 0
103 -130 -230 0
103 -146 -134 0
103 -146 -166 0
103 -146 -182 0
103 -146 -198 0
103 -146 -214 0
103 -146 -230 0
103 -162 -134 0
103 -162 -150 0
103 -162 -182 0
103 -162 -198 0
103 -162 -214 0
103 -162 -230 0
103 -178 -134 0
103 -178 -150 0
103 -178 -166 0
103 -178 -198 0
103 -178 -214 0
103 -178 -230 0
103 -194 -134 0
103 -194 -150 0
103 -194 -166 0
103 -194 -182 0
103 -194 -214 0
103 -194 -230 0
103 -210 -134 0
103 -210 -150 0
103 -210 -166 0
103 -210 -182 0
103 -210 -198 0
103 -210 -230 0
103 -226 -134 0
103 -226 -150 0
103 -226 -166 0
103 -226 -182 0
103 -226 -198 0
103 -226 -214 0
104 -130 -151 0
104 -130 -167 0
104 -130 -183 0
104 -130 -199 0
104 -130 -215 0
104 -130 -231 0
104 -146 -135 0
104 -146 -167 0
104 -146 -183 0
104 -146 -199 0
104 -146 -215 0
104 -146 -231 0
104 -162 -135 0
104 -162 -151 0
104 -162 -183 0
104 -162 -199 0
104 -162 -215 0
104 -162 -231 0
104 -178 -135 0
104 -178 -151 0
104 -178 -167 0
104 -178 -199 0
104 -178 -215 0
104 -178 -231 0
104 -194 -135 0
104 -194 -151 0
104 -194 -167 0
104 -194 -183 0
104 -194 -215 0
104 -194 -231 0
104 -210 -135 0
104 -210 -151 0
104 -210 -167 0
104 -210 -183 0
104 -210 -199 0
104 -210 -231 0
104 -226 -135 0
104 -226 -151 0
104 -226 -167 0
104 -226 -183 0
104 -226 -199 0
104 -226 -215 0
105 -130 -152 0
105 -130 -168 0
105 -130 -184 0
105 -130 -200 0
105 -130 -216 0
105 -130 -232 0
105 -146 -136 0
105 -146 -168 0
105 -146 -184 0
105 -146 -200 0
105 -146 -216 0
105 -146 -232 0
105 -162 -136 0
105 -162 -152 0
105 -162 -184 0
105 -162 -200 0
105 -162 -216 0
105 -162 -232 0
105 -178 -136 0
105 -178 -152 0
105 -178 -168 0
105 -178 -200 0
105 -178 -216 0
105 -178 -232 0
105 -194 -136 0
105 -194 -152 0
105 -194 -168 0
105 -194 -184 0
105 -194 -216 0
105 -194 -232 0
105 -210 -136 0
105 -210 -152 0
105 -210 -168 0
105 -210 -184 0
105 -210 -200 0
105 -210 -232 0
105 -226 -136 0
105 -226 -152 0
105 -226 -168 0
105 -226 -184 0
105 -226 -200 0
105 -226 -216 0
106 -131 -148 0
106 -131 -164 0
106 -131 -180 0
106 -131 -196 0
106 -131 -212 0
106 -131 -228 0
106 -147 -132 0
106 -147 -164 0
106 -147 -180 0
106 -147 -196 0
106 -147 -212 0
106 -147 -228 0
106 -163 -132 0
106 -163 -148 0
106 -163 -180 0
106 -163 -196 0
106 -163 -212 0
106 -163 -228 0
106 -179 -132 0
106 -179 -148 0
106 -179 -164 0
106 -179 -196 0
106 -179 -212 0
106 -179 -228 0
106 -195 -132 0
106 -195 -148 0
106 -195 -164 0
106 -195 -180 0
106 -195 -212 0
106 -195 -228 0
106 -211 -132 0
106 -211 -148 0
106 -211 -164 0
106 -211 -180 0
106 -211 -196 0
106 -211 -228 0
106 -227 -132 0
106 -227 -148 0
106 -227 -164 0
106 -227 -180 0
106 -227 -196 0
106 -227 -212 0
107 -131 -149 0
107 -131 -165 0
107 -131 -181 0
107 -131 -197 0
107 -131 -213 0
107 -131 -229 0
107 -147 -133 0
107 -147 -165 0
107 -147 -181 0
107 -147 -197 0
107 -147 -213 0
107 -147 -229 0
107 -163 -133 0
107 -163 -149 0
107 -163 -181 0
107 -163 -197 0
107 -163 -213 0
107 -163 -229 0
107 -179 -133 0
107 -179 -149 0
107 -179 -165 0
107 -179 -197 0
107 -179 -213 0
107 -179 -229 0
107 -195 -133 0
107 -195 -149 0
107 -195 -165 0
107 -195 -181 0
107 -195 -213 0
107 -195 -229 0
107 -211 -133 0
107 -211 -149 0
107 -211 -165 0
107 -211 -181 0
107 -211 -197 0
107 -211 -229 0
107 -227 -133 0
107 -227 -149 0
107 -227 -165 0
107 -227 -181 0
107 -227 -197 0
107 -227 -213 0
108 -131 -150 0
108 -131 -166 0
108 -131 -182 0
108 -131 -198 0
108 -131 -214 0
108 -131 -230 0
108 -147 -134 0
108 -147 -166 0
108 -147 -182 0
108 -147 -198 0
108 -147 -214 0
108 -147 -230 0
108 -163 -134 0
108 -163 -150 0
108 -163 -182 0
108 -163 -198 0
108 -163 -214 0
108 -163 -230 0
108 -179 -134 0
108 -179 -150 0
108 -179 -166 0
108 -179 -198 0
108 -179 -214 0
108 -179 -230 0
108 -195 -134 0
108 -195 -150 0
108 -195 -166 0
108 -195 -182 0
108 -195 -214 0
108 -195 -230 0
108 -211 -134 0
108 -211 -150 0
108 -211 -166 0
108 -211 -182 0
108 -211 -198 0
108 -211 -230 0
108 -227 -134 0
108 -227 -150 0
108 -227 -166 0
108 -227 -182 0
108 -227 -198 0
108 -227 -214 0
109 -131 -151 0
109 -131 -167 0
109 -131 -183 0
109 -131 -199 0
109 -131 -215 0
109 -131 -231 0
109 -147 -135 0
109 -147 -167 0
109 -147 -183 0
109 -147 -199 0
109 -147 -215 0
109 -147 -231 0
109 -163 -135 0
109 -163 -151 0
109 -163 -183 0
109 -163 -199 0
109 -163 -215 0
109 -163 -231 0
109 -179 -135 0
109 -179 -151 0
109 -179 -167 0
109 -179 -199 0
109 -179 -215 0
109 -179 -231 0
109 -195 -135 0
109 -195 -151 0
109 -195 -167 0
109 -195 -183 0
109 -195 -215 0
109 -195 -231 0
109 -211 -135 0
109 -211 -151 0
109 -211 -167 0
109 -211 -183 0
109 -211 -199 0
109 -211 -231 0
109 -227 -135 0
109 -227 -151 0
109 -227 -167 0
109 -227 -183 0
109 -227 -199 0
109 -227 -215 0
110 -131 -152 0
110 -131 -168 0
110 -131 -184 0
110 -131 -200 0
110 -131 -216 0
110 -131 -232 0
110 -147 -136 0
110 -147 -168 0
110 -147 -184 0
110 -147 -200 0
110 -147 -216 0
110 -147 -232 0
110 -163 -136 0
110 -163 -152 0
110 -163 -184 0
110 -163 -200 0
110 -163 -216 0
110 -163 -232 0
110 -179 -136 0
110 -179 -152 0
110 -179 -168 0
110 -179 -200 0
110 -179 -216 0
110 -179 -232 0
110 -195 -136 0
110 -195 -152 0
110 -195 -168 0
110 -195 -184 0
110 -195 -216 0
110 -195 -232 0
110 -211 -136 0
110 -211 -152 0
110 -211 -168 0
110 -211 -184 0
110 -211 -200 0
110 -211 -232 0
110 -227 -136 0
110 -227 -152 0
110 -227 -168 0
110 -227 -184 0
110 -227 -200 0
110 -227 -216 0
111 -132 -149 0
111 -132 -165 0
111 -132 -181 0
111 -132 -197 0
111 -132 -213 0
111 -132 -229 0
111 -148 -133 0
111 -148 -165 0
111 -148 -181 0
111 -148 -197 0
111 -148 -213 0
111 -148 -229 0
111 -164 -133 0
111 -164 -149 0
111 -164 -181 0
111 -164 -197 0
111 -164 -213 0
111 -164 -229 0
111 -180 -133 0
111 -180 -149 0
111 -180 -165 0
111 -180 -197 0
111 -180 -213 0
111 -180 -229 0
111 -196 -133 0
111 -196 -149 0
111 -196 -165 0
111 -196 -181 0
111 -196 -213 0
111 -196 -229 0
111 -212 -133 0
111 -212 -149 0
111 -212 -165 0
111 -212 -181 0
111 -212 -197 0
111 -212 -229 0
111 -228 -133 0
111 -228 -149 0
111 -228 -165 0
111 -228 -181 0
111 -228 -197 0
111 -228 -213 0
112 -132 -150 0
112 -132 -166 0
112 -132 -182 0
112 -132 -198 0
112 -132 -214 0
112 -132 -230 0
112 -148 -134 0
112 -148 -166 0
112 -148 -182 0
112 -148 -198 0
112 -148 -214 0
112 -148 -230 0
112 -164 -134 0
112 -164 -150 0
112 -164 -182 0
112 -164 -198 0
112 -164 -214 0
112 -164 -230 0
112 -180 -134 0
112 -180 -150 0
112 -180 -166 0
112 -180 -198 0
112 -180 -214 0
112 -180 -230 0
112 -196 -134 0
112 -196 -150 0
112 -196 -166 0
112 -196 -182 0
112 -196 -214 0
112 -196 -230 0
112 -212 -134 0
112 -212 -150 0
112 -212 -166 0
112 -212 -182 0
112 -212 -198 0
112 -212 -230 0
112 -228 -134 0
112 -228 -150 0
112 -228 -166 0
112 -228 -182 0
112 -228 -198 0
112 -228 -214 0
113 -132 -151 0
113 -132 -167 0
113 -132 -183 0
113 -132 -199 0
113 -132 -215 0
113 -132 -231 0
113 -148 -135 0
113 -148 -167 0
113 -148 -183 0
113 -148 -199 0
113 -148 -215 0
113 -148 -231 0
113 -164 -135 0
113 -164 -151 0
113 -164 -183 0
113 -164 -199 0
113 -164 -215 0
113 -164 -231 0
113 -180 -135 0
113 -180 -151 0
113 -180 -167 0
113 -180 -199 0
113 -180 -215 0
113 -180 -231 0
113 -196 -135 0
113 -196 -151 0
113 -196 -167 0
113 -196 -183 0
113 -196 -215 0
113 -196 -231 0
113 -212 -135 0
113 -212 -151 0
113 -212 -167 0
113 -212 -183 0
113 -212 -199 0
113 -212 -231 0
113 -228 -135 0
113 -228 -151 0
113 -228 -167 0
113 -228 -183 0
113 -228 -199 0
113 -228 -215 0
114 -132 -152 0
114 -132 -168 0
114 -132 -184 0
114 -132 -200 0
114 -132 -216 0
114 -132 -232 0
114 -148 -136 0
114 -148 -168 0
114 -148 -184 0
114 -148 -200 0
114 -148 -216 0
114 -148 -232 0
114 -164 -136 0
114 -164 -152 0
114 -164 -184 0
114 -164 -200 0
114 -164 -216 0
114 -164 -232 0
114 -180 -136 0
114 -180 -152 0
114 -180 -168 0
114 -180 -200 0
114 -180 -216 0
114 -180 -232 0
114 -196 -136 0
114 -196 -152 0
114 -196 -168 0
114 -196 -184 0
114 -196 -216 0
114 -196 -232 0
114 -212 -136 0
114 -212 -152 0
114 -212 -168 0
114 -212 -184 0
114 -212 -200 0
114 -212 -232 0
114 -228 -136 0
114 -228 -152 0
114 -228 -168 0
114 -228 -184 0
114 -228 -200 0
114 -228 -216 0
115 -133 -150 0
115 -133 -166 0
115 -133 -182 0
115 -133 -198 0
115 -133 -214 0
115 -133 -230 0
115 -149 -134 0
115 -149 -166 0
115 -149 -182 0
115 -149 -198 0
115 -149 -214 0
115 -149 -230 0
115 -165 -134 0
115 -165 -150 0
115 -165 -182 0
115 -165 -198 0
115 -165 -214 0
115 -165 -230 0
115 -181 -134 0
115 -181 -150 0
115 -181 -166 0
115 -181 -198 0
115 -181 -214 0
115 -181 -230 0
115 -197 -134 0
115 -197 -150 0
115 -197 -166 0
115 -197 -182 0
115 -197 -214 0
115 -197 -230 0
115 -213 -134 0
115 -213 -150 0
115 -213 -166 0
115 -213 -182 0
115 -213 -198 0
115 -213 -230 0
115 -229 -134 0
115 -229 -150 0
115 -229 -166 0
115 -229 -182 0
115 -229 -198 0
115 -229 -214 0
116 -133 -151 0
116 -133 -167 0
116 -133 -183 0
116 -133 -199 0
116 -133 -215 0
116 -133 -231 0
116 -149 -135 0
116 -149 -167 0
116 -149 -183 0
116 -149 -199 0
116 -149 -215 0
116 -149 -231 0
116 -165 -135 0
116 -165 -151 0
116 -165 -183 0
116 -165 -199 0
116 -165 -215 0
116 -165 -231 0
116 -181 -135 0
116 -181 -151 0
116 -181 -167 0
116 -181 -199 0
116 -181 -215 0
116 -181 -231 0
116 -197 -135 0
116 -197 -151 0
116 -197 -167 0
116 -197 -183 0
116 -197 -215 0
116 -197 -231 0
116 -213 -135 0
116 -213 -151 0
116 -213 -167 0
116 -213 -183 0
116 -213 -199 0
116 -213 -231 0
116 -229 -135 0
116 -229 -151 0
116 -229 -167 0
116 -229 -183 0
116 -229 -199 0
116 -229 -215 0
117 -133 -152 0
117 -133 -168 0
117 -133 -184 0
117 -133 -200 0
117 -133 -216 0
117 -133 -232 0
117 -149 -136 0
117 -149 -168 0
117 -149 -184 0
117 -149 -200 0
117 -149 -216 0
117 -149 -232 0
117 -165 -136 0
117 -165 -152 0
117 -165 -184 0
117 -165 -200 0
117 -165 -216 0
117 -165 -232 0
117 -181 -136 0
117 -181 -152 0
117 -181 -168 0
117 -181 -200 0
117 -181 -216 0
117 -181 -232 0
117 -197 -136 0
117 -197 -152 0
117 -197 -168 0
117 -197 -184 0
117 -197 -216 0
117 -197 -232 0
117 -213 -136 0
117 -213 -152 0
117 -213 -168 0
117 -213 -184 0
117 -213 -200 0
117 -213 -232 0
117 -229 -136 0
117 -229 -152 0
117 -229 -168 0
117 -229 -184 0
117 -229 -200 0
117 -229 -216 0
118 -134 -151 0
118 -134 -167 0
118 -134 -183 0
118 -134 -199 0
118 -134 -215 0
118 -134 -231 0
118 -150 -135 0
118 -150 -167 0
118 -150 -183 0
118 -150 -199 0
118 -150 -215 0
118 -150 -231 0
118 -166 -135 0
118 -166 -151 0
118 -166 -183 0
118 -166 -199 0
118 -166 -215 0
118 -166 -231 0
118 -182 -135 0
118 -182 -151 0
118 -182 -167 0
118 -182 -199 0
118 -182 -215 0
118 -182 -231 0
118 -198 -135 0
118 -198 -151 0
118 -198 -167 0
118 -198 -183 0
118 -198 -215 0
118 -198 -231 0
118 -214 -135 0
118 -214 -151 0
118 -214 -167 0
118 -214 -183 0
118 -214 -199 0
118 -214 -231 0
118 -230 -135 0
118 -230 -151 0
118 -230 -167 0
118 -230 -183 0
118 -230 -199 0
118 -230 -215 0
119 -134 -152 0
119 -134 -168 0
119 -134 -184 0
119 -134 -200 0
119 -134 -216 0
119 -134 -232 0
119 -150 -136 0
119 -150 -168 0
119 -150 -184 0
119 -150 -200 0
119 -150 -216 0
119 -150 -232 0
119 -166 -136 0
119 -166 -152 0
119 -166 -184 0
119 -166 -200 0
119 -166 -216 0
119 -166 -232 0
119 -182 -136 0
119 -182 -152 0
119 -182 -168 0
119 -182 -200 0
119 -182 -216 0
119 -182 -232 0
119 -198 -136 0
119 -198 -152 0
119 -198 -168 0
119 -198 -184 0
119 -198 -216 0
119 -198 -232 0
119 -214 -136 0
119 -214 -152 0
119 -214 -168 0
119 -214 -184 0
119 -214 -200 0
119 -214 -232 0
119 -230 -136 0
119 -230 -152 0
119 -230 -168 0
119 -230 -184 0
119 -230 -200 0
119 -230 -216 0
120 -135 -152 0
120 -135 -168 0
120 -135 -184 0
120 -135 -200 0
120 -135 -216 0
120 -135 -232 0
120 -151 -136 0
120 -151 -168 0
120 -151 -184 0
120 -151 -200 0
120 -151 -216 0
120 -151 -232 0
120 -167 -136 0
120 -167 -152 0
120 -167 -184 0
120 -167 -200 0
120 -167 -216 0
120 -167 -232 0
120 -183 -136 0
120 -183 -152 0
120 -183 -168 0
120 -183 -200 0
120 -183 -216 0
120 -183 -232 0
120 -199 -136 0
120 -199 -152 0
120 -199 -168 0
120 -199 -184 0
120 -199 -216 0
120 -199 -232 0
120 -215 -136 0
120 -215 -152 0
120 -215 -168 0
120 -215 -184 0
120 -215 -200 0
120 -215 -232 0
120 -231 -136 0
120 -231 -152 0
120 -231 -168 0
120 -231 -184 0
120 -231 -200 0
120 -231 -216 0
-233 -234 0
-233 -235 0
-233 -236 0
-233 -237 0
-233 -238 0
-234 -235 0
-234 -236 0
-234 -237 0
-234 -238 0
-235 -236 0
-235 -237 0
-235 -238 0
-236 -237 0
-236 -238 0
-237 -238 0
233 234 235 236 237 238 0
-239 -240 0
-239 -241 0
-239 -242 0
-239 -243 0
-239 -244 0
-240 -241 0
-240 -242 0
-240 -243 0
-240 -244 0
-241 -242 0
-241 -243 0
-241 -244 0
-242 -243 0
-242 -244 0
-243 -244 0
239 240 241 242 243 244 0
-245 -246 0
-245 -247 0
-245 -248 0
-245 -249 0
-245 -250 0
-246 -247 0
-246 -248 0
-246 -249 0
-246 -250 0
-247 -248 0
-247 -249 0
-247 -250 0
-248 -249 0
-248 -250 0
-249 -250 0
245 246 247 248 249 250 0
-251 -252 0
-251 -253 0
-251 -254 0
-251 -255 0
-251 -256 0
-252 -253 0
-252 -254 0
-252 -255 0
-252 -256 0
-253 -254 0
-253 -255 0
-253 -256 0
-254 -255 0
-254 -256 0
-255 -256 0
251 252 253 254 255 256 0
-257 -258 0
-257 -259 0
-257 -260 0
-257 -261 0
-257 -262 0
-258 -259 0
-258 -260 0
-258 -261 0
-258 -262 0
-259 -260 0
-259 -261 0
-259 -262 0
-260 -261 0
-260 -262 0
-261 -262 0
257 258 259 260 261 262 0
-263 -264 0
-263 -265 0
-263 -266 0
-263 -267 0
-263 -268 0
-264 -265 0
-264 -266 0
-264 -267 0
-264 -268 0
-265 -266 0
-265 -267 0
-265 -268 0
-266 -267 0
-266 -268 0
-267 -268 0
263 264 265 266 267 268 0
-269 -270 0
-269 -271 0
-269 -272 0
-269 -273 0
-269 -274 0
-270 -271 0
-270 -272 0
-270 -273 0
-270 -274 0
-271 -272 0
-271 -273 0
-271 -274 0
-272 -273 0
-272 -274 0
-273 -274 0
269 270 271 272 273 274 0
-275 -276 0
-275 -277 0
-275 -278 0
-275 -279 0
-275 -280 0
-276 -277 0
-276 -278 0
-276 -279 0
-276 -280 0
-277 -278 0
-277 -279 0
-277 -280 0
-278 -279 0
-278 -280 0
-279 -280 0
275 276 277 278 279 280 0
-281 -282 0
-281 -283 0
-281 -284 0
-281 -285 0
-281 -286 0
-282 -283 0
-282 -284 0
-282 -285 0
-282 -286 0
-283 -284 0
-283 -285 0
-283 -286 0
-284 -285 0
-284 -286 0
-285 -286 0
281 282 283 284 285 286 0
-287 -288 0
-287 -289 0
-287 -290 0
-287 -291 0
-287 -292 0
-288 -289 0
-288 -290 0
-288 -291 0
-288 -292 0
-289 -290 0
-289 -291 0
-289 -292 0
-290 -291 0
-290 -292 0
-291 -292 0
287 288 289 290 291 292 0
-293 -294 0
-293 -295 0
-293 -296 0
-293 -297 0
-293 -298 0
-294 -295 0
-294 -296 0
-294 -297 0
-294 -298 0
-295 -296 0
-295 -297 0
-295 -298 0
-296 -297 0
-296 -298 0
-297 -298 0
293 294 295 296 297 298 0
-299 -300 0
-299 -301 0
-299 -302 0
-299 -303 0
-299 -304 0
-300 -301 0
-300 -302 0
-300 -303 0
-300 -304 0
-301 -302 0
-301 -303 0
-301 -304 0
-302 -303 0
-302 -304 0
-303 -304 0
299 300 301 302 303 304 0
-305 -306 0
-305 -307 0
-305 -308 0
-305 -309 0
-305 -310 0
-306 -307 0
-306 -308 0
-306 -309 0
-306 -310 0
-307 -308 0
-307 -309 0
-307 -310 0
-308 -309 0
-308 -310 0
-309 -310 0
305 306 307 308 309 310 0
-311 -312 0
-311 -313 0
-311 -314 0
-311 -315 0
-311 -316 0
-312 -313 0
-312 -314 0
-312 -315 0
-312 -316 0
-313 -314 0
-313 -315 0
-313 -316 0
-314 -315 0
-314 -316 0
-315 -316 0
311 312 313 314 315 316 0
-317 -318 0
-317 -319 0
-317 -320 0
-317 -321 0
-317 -322 0
-318 -319 0
-318 -320 0
-318 -321 0
-318 -322 0
-319 -320 0
-319 -321 0
-319 -322 0
-320 -321 0
-320 -322 0
-321 -322 0
317 318 319 320 321 322 0
-323 -324 0
-323 -325 0
-323 -326 0
-323 -327 0
-323 -328 0
-324 -325 0
-324 -326 0
-324 -327 0
-324 -328 0
-325 -326 0
-325 -327 0
-325 -328 0
-326 -327 0
-326 -328 0
-327 -328 0
323 324 325 326 327 328 0
-1 -233 -239 0
-1 -234 -240 0
-1 -235 -241 0
-1 -236 -242 0
-1 -237 -243 0
-1 -238 -244 0
-2 -233 -245 0
-2 -234 -246 0
-2 -235 -247 0
-2 -236 -248 0
-2 -237 -249 0
-2 -238 -250 0
-3 -233 -251 0
-3 -234 -252 0
-3 -235 -253 0
-3 -236 -254 0
-3 -237 -255 0
-3 -238 -256 0
-4 -233 -257 0
-4 -234 -258 0
-4 -235 -259 0
-4 -236 -260 0
-4 -237 -261 0
-4 -238 -262 0
-5 -233 -263 0
-5 -234 -264 0
-5 -235 -265 0
-5 -236 -266 0
-5 -237 -267 0
-5 -238 -268 0
-6 -233 -269 0
-6 -234 -270 0
-6 -235 -271 0
-6 -236 -272 0
-6 -237 -273 0
-6 -238 -274 0
-7 -233 -275 0
-7 -234 -276 0
-7 -235 -277 0
-7 -236 -278 0
-7 -237 -279 0
-7 -238 -280 0
-8 -233 -281 0
-8 -234 -282 0
-8 -235 -283 0
-8 -236 -284 0
-8 -237 -285 0
-8 -238 -286 0
-9 -233 -287 0
-9 -234 -288 0
-9 -235 -289 0
-9 -236 -290 0
-9 -237 -291 0
-9 -238 -292 0
-10 -233 -293 0
-10 -234 -294 0
-10 -235 -295 0
-10 -236 -296 0
-10 -237 -297 0
-10 -238 -298 0
-11 -233 -299 0
-11 -234 -300 0
-11 -235 -301 0
-11 -236 -302 0
-11 -237 -303 0
-11 -238 -304 0
-12 -233 -305 0
-12 -234 -306 0
-12 -235 -307 0
-12 -236 -308 0
-12 -237 -309 0
-12 -238 -310 0
-13 -233 -311 0
-13 -234 -312 0
-13 -235 -313 0
-13 -236 -314 0
-13 -237 -315 0
-13 -238 -316 0
-14 -233 -317 0
-14 -234 -318 0
-14 -235 -319 0
-14 -236 -320 0
-14 -237 -321 0
-14 -238 -322 0
-15 -233 -323 0
-15 -234 -324 0
-15 -235 -325 0
-15 -236 -326 0
-15 -237 -327 0
-15 -238 -328 0
-16 -239 -245 0
-16 -240 -246 0
-16 -241 -247 0
-16 -242 -248 0
-16 -243 -249 0
-16 -244 -250 0
-17 -239 -251 0
-17 -240 -252 0
-17 -241 -253 0
-17 -242 -254 0
-17 -243 -255 0
-17 -244 -256 0
-18 -239 -257 0
-18 -240 -258 0
-18 -241 -259 0
-18 -242 -260 0
-18 -243 -261 0
-18 -244 -262 0
-19 -239 -263 0
-19 -240 -264 0
-19 -241 -265 0
-19 -242 -266 0
-19 -243 -267 0
-19 -244 -268 0
-20 -239 -269 0
-20 -240 -270 0
-20 -241 -271 0
-20 -242 -272 0
-20 -243 -273 0
-20 -244 -274 0
-21 -239 -275 0
-21 -240 -276 0
-21 -241 -277 0
-21 -242 -278 0
-21 -243 -279 0
-21 -244 -280 0
-22 -239 -281 0
-22 -240 -282 0
-22 -241 -283 0
-22 -242 -284 0
-22 -243 -285 0
-22 -244 -286 0
-23 -239 -287 0
-23 -240 -288 0
-23 -241 -289 0
-23 -242 -290 0
-23 -243 -291 0
-23 -244 -292 0
-24 -239 -293 0
-24 -240 -294 0
-24 -241 -295 0
-24 -242 -296 0
-24 -243 -297 0
-24 -244 -298 0
-25 -239 -299 0
-25 -240 -300 0
-25 -241 -301 0
-25 -242 -302 0
-25 -243 -303 0
-25 -244 -304 0
-26 -239 -305 0
-26 -240 -306 0
-26 -241 -307 0
-26 -242 -308 0
-26 -243 -309 0
-26 -244 -310 0
-27 -239 -311 0
-27 -240 -312 0
-27 -241 -313 0
-27 -242 -314 0
-27 -243 -315 0
-27 -244 -316 0
-28 -239 -317 0
-28 -240 -318 0
-28 -241 -319 0
-28 -242 -320 0
-28 -243 -321 0
-28 -244 -322 0
-29 -239 -323 0
-29 -240 -324 0
-29 -241 -325 0
-29 -242 -326 0
-29 -243 -327 0
-29 -244 -328 0
-30 -245 -251 0
-30 -246 -252 0
-30 -247 -253 0
-30 -248 -254 0
-30 -249 -255 0
-30 -250 -256 0
-31 -245 -257 0
-31 -246 -258 0
-31 -247 -259 0
-31 -248 -260 0
-31 -249 -261 0
-31 -250 -262 0
-32 -245 -263 0
-32 -246 -264 0
-32 -247 -265 0
-32 -248 -266 0
-32 -249 -267 0
-32 -250 -268 0
-33 -245 -269 0
-33 -246 -270 0
-33 -247 -271 0
-33 -248 -272 0
-33 -249 -273 0
-33 -250 -274 0
-34 -245 -275 0
-34 -246 -276 0
-34 -247 -277 0
-34 -248 -278 0
-34 -249 -279 0
-34 -250 -280 0
-35 -245 -281 0
-35 -246 -282 0
-35 -247 -283 0
-35 -248 -284 0
-35 -249 -285 0
-35 -250 -286 0
-36 -245 -287 0
-36 -246 -288 0
-36 -247 -289 0
-36 -248 -290 0
-36 -249 -291 0
-36 -250 -292 0
-37 -245 -293 0
-37 -246 -294 0
-37 -247 -295 0
-37 -248 -296 0
-37 -249 -297 0
-37 -250 -298 0
-38 -245 -299 0
-38 -246 -300 0
-38 -247 -301 0
-38 -248 -302 0
-38 -249 -303 0
-38 -250 -304 0
-39 -245 -305 0
-39 -246 -306 0
-39 -247 -307 0
-39 -248 -308 0
-39 -249 -309 0
-39 -250 -310 0
-40 -245 -311 0
-40 -246 -312 0
-40 -247 -313 0
-40 -248 -314 0
-40 -249 -315 0
-40 -250 -316 0
-41 -245 -317 0
-41 -246 -318 0
-41 -247 -319 0
-41 -248 -320 0
-41 -249 -321 0
-41 -250 -322 0
-42 -245 -323 0
-42 -246 -324 0
-42 -247 -325 0
-42 -248 -326 0
-42 -249 -327 0
-42 -250 -328 0
-43 -251 -257 0
-43 -252 -258 0
-43 -253 -259 0
-43 -254 -260 0
-43 -255 -261 0
-43 -256 -262 0
-44 -251 -263 0
-44 -252 -264 0
-44 -253 -265 0
-44 -254 -266 0
-44 -255 -267 0
-44 -256 -268 0
-45 -251 -269 0
-45 -252 -270 0
-45 -253 -271 0
-45 -254 -272 0
-45 -255 -273 0
-45 -256 -274 0
-46 -251 -275 0
-46 -252 -276 0
-46 -253 -277 0
-46 -254 -278 0
-46 -255 -279 0
-46 -256 -280 0
-47 -251 -281 0
-47 -252 -282 0
-47 -253 -283 0
-47 -254 -284 0
-47 -255 -285 0
-47 -256 -286 0
-48 -251 -287 0
-48 -252 -288 0
-48 -253 -289 0
-48 -254 -290 0
-48 -255 -291 0
-48 -256 -292 0
-49 -251 -293 0
-49 -252 -294 0
-49 -253 -295 0
-49 -254 -296 0
-49 -255 -297 0
-49 -256 -298 0
-50 -251 -299 0
-50 -252 -300 0
-50 -253 -301 0
-50 -254 -302 0
-50 -255 -303 0
-50 -256 -304 0
-51 -251 -305 0
-51 -252 -306 0
-51 -253 -307 0
-51 -254 -308 0
-51 -255 -309 0
-51 -256 -310 0
-52 -251 -311 0
-52 -252 -312 0
-52 -253 -313 0
-52 -254 -314 0
-52 -255 -315 0
-52 -256 -316 0
-53 -251 -317 0
-53 -252 -318 0
-53 -253 -319 0
-53 -254 -320 0
-53 -255 -321 0
-53 -256 -322 0
-54 -251 -323 0
-54 -252 -324 0
-54 -253 -325 0
-54 -254 -326 0
-54 -255 -327 0
-54 -256 -328 0
-55 -257 -263 0
-55 -258 -264 0
-55 -259 -265 0
-55 -260 -266 0
-55 -261 -267 0
-55 -262 -268 0
-56 -257 -269 0
-56 -258 -270 0
-56 -259 -271 0
-56 -260 -272 0
-56 -261 -273 0
-56 -262 -274 0
-57 -257 -275 0
-57 -258 -276 0
-57 -259 -277 0
-57 -260 -278 0
-57 -261 -279 0
-57 -262 -280 0
-58 -257 -281 0
-58 -258 -282 0
-58 -259 -283 0
-58 -260 -284 0
-58 -261 -285 0
-58 -262 -286 0
-59 -257 -287 0
-59 -258 -288 0
-59 -259 -289 0
-59 -260 -290 0
-59 -261 -291 0
-59 -262 -292 0
-60 -257 -293 0
-60 -258 -294 0
-60 -259 -295 0
-60 -260 -296 0
-60 -261 -297 0
-60 -262 -298 0
-61 -257 -299 0
-61 -258 -300 0
-61 -259 -301 0
-61 -260 -302 0
-61 -261 -303 0
-61 -262 -304 0
-62 -257 -305 0
-62 -258 -306 0
-62 -259 -307 0
-62 -260 -308 0
-62 -261 -309 0
-62 -262 -310 0
-63 -257 -311 0
-63 -258 -312 0
-63 -259 -313 0
-63 -260 -314 0
-63 -261 -315 0
-63 -262 -316 0
-64 -257 -317 0
-64 -258 -318 0
-64 -259 -319 0
-64 -260 -320 0
-64 -261 -321 0
-64 -262 -322 0
-65 -257 -323 0
-65 -258 -324 0
-65 -259 -325 0
-65 -260 -326 0
-65 -261 -327 0
-65 -262 -328 0
-66 -263 -269 0
-66 -264 -270 0
-66 -265 -271 0
-66 -266 -272 0
-66 -267 -273 0
-66 -268 -274 0
-67 -263 -275 0
-67 -264 -276 0
-67 -265 -277 0
-67 -266 -278 0
-67 -267 -279 0
-67 -268 -280 0
-68 -263 -281 0
-68 -264 -282 0
-68 -265 -283 0
-68 -266 -284 0
-68 -267 -285 0
-68 -268 -286 0
-69 -263 -287 0
-69 -264 -288 0
-69 -265 -289 0
-69 -266 -290 0
-69 -267 -291 0
-69 -268 -292 0
-70 -263 -293 0
-70 -264 -294 0
-70 -265 -295 0
-70 -266 -296 0
-70 -267 -297 0
-70 -268 -298 0
-71 -263 -299 0
-71 -264 -300 0
-71 -265 -301 0
-71 -266 -302 0
-71 -267 -303 0
-71 -268 -304 0
-72 -263 -305 0
-72 -264 -306 0
-72 -265 -307 0
-72 -266 -308 0
-72 -267 -309 0
-72 -268 -310 0
-73 -263 -311 0
-73 -264 -312 0
-73 -265 -313 0
-73 -266 -314 0
-73 -267 -315 0
-73 -268 -316 0
-74 -263 -317 0
-74 -264 -318 0
-74 -265 -319 0
-74 -266 -320 0
-74 -267 -321 0
-74 -268 -322 0
-75 -263 -323 0
-75 -264 -324 0
-75 -265 -325 0
-75 -266 -326 0
-75 -267 -327 0
-75 -268 -328 0
-76 -269 -275 0
-76 -270 -276 0
-76 -271 -277 0
-76 -272 -278 0
-76 -273 -279 0
-76 -274 -280 0
-77 -269 -281 0
-77 -270 -282 0
-77 -271 -283 0
-77 -272 -284 0
-77 -273 -285 0
-77 -274 -286 0
-78 -269 -287 0
-78 -270 -288 0
-78 -271 -289 0
-78 -272 -290 0
-78 -273 -291 0
-78 -274 -292 0
-79 -269 -293 0
-79 -270 -294 0
-79 -271 -295 0
-79 -272 -296 0
-79 -273 -297 0
-79 -274 -298 0
-80 -269 -299 0
-80 -270 -300 0
-80 -271 -301 0
-80 -272 -302 0
-80 -273 -303 0
-80 -274 -304 0
-81 -269 -305 0
-81 -270 -306 0
-81 -271 -307 0
-81 -272 -308 0
-81 -273 -309 0
-81 -274 -310 0
-82 -269 -311 0
-82 -270 -312 0
-82 -271 -313 0
-82 -272 -314 0
-82 -273 -315 0
-82 -274 -316 0
-83 -269 -317 0
-83 -270 -318 0
-83 -271 -319 0
-83 -272 -320 0
-83 -273 -321 0
-83 -274 -322 0
-84 -269 -323 0
-84 -270 -324 0
-84 -271 -325 0
-84 -272 -326 0
-84 -273 -327 0
-84 -274 -328 0
-85 -275 -281 0
-85 -276 -282 0
-85 -277 -283 0
-85 -278 -284 0
-85 -279 -285 0
-85 -280 -286 0
-86 -275 -287 0
-86 -276 -288 0
-86 -277 -289 0
-86 -278 -290 0
-86 -279 -291 0
-86 -280 -292 0
-87 -275 -293 0
-87 -276 -294 0
-87 -277 -295 0
-87 -278 -296 0
-87 -279 -297 0
-87 -280 -298 0
-88 -275 -299 0
-88 -276 -300 0
-88 -277 -301 0
-88 -278 -302 0
-88 -279 -303 0
-88 -280 -304 0
-89 -275 -305 0
-89 -276 -306 0
-89 -277 -307 0
-89 -278 -308 0
-89 -279 -309 0
-89 -280 -310 0
-90 -275 -311 0
-90 -276 -312 0
-90 -277 -313 0
-90 -278 -314 0
-90 -279 -315 0
-90 -280 -316 0
-91 -275 -317 0
-91 -276 -318 0
-91 -277 -319 0
-91 -278 -320 0
-91 -279 -321 0
-91 -280 -322 0
-92 -275 -323 0
-92 -276 -324 0
-92 -277 -325 0
-92 -278 -326 0
-92 -279 -327 0
-92 -280 -328 0
-93 -281 -287 0
-93 -282 -288 0
-93 -283 -289 0
-93 -284 -290 0
-93 -285 -291 0
-93 -286 -292 0
-94 -281 -293 0
-94 -282 -294 0
-94 -283 -295 0
-94 -284 -296 0
-94 -285 -297 0
-94 -286 -298 0
-95 -281 -299 0
-95 -282 -300 0
-95 -283 -301 0
-95 -284 -302 0
-95 -285 -303 0
-95 -286 -304 0
-96 -281 -305 0
-96 -282 -306 0
-96 -283 -307 0
-96 -284 -308 0
-96 -285 -309 0
-96 -286 -310 0
-97 -281 -311 0
-97 -282 -312 0
-97 -283 -313 0
-97 -284 -314 0
-97 -285 -315 0
-97 -286 -316 0
-98 -281 -317 0
-98 -282 -318 0
-98 -283 -319 0
-98 -284 -320 0
-98 -285 -321 0
-98 -286 -322 0
-99 -281 -323 0
-99 -282 -324 0
-99 -283 -325 0
-99 -284 -326 0
-99 -285 -327 0
-99 -286 -328 0
-100 -287 -293 0
-100 -288 -294 0
-100 -289 -295 0
-100 -290 -296 0
-100 -291 -297 0
-100 -292 -298 0
-101 -287 -299 0
-101 -288 -300 0
-101 -289 -301 0
-101 -290 -302 0
-101 -291 -303 0
-101 -292 -304 0
-102 -287 -305 0
-102 -288 -306 0
-102 -289 -307 0
-102 -290 -308 0
-102 -291 -309 0
-102 -292 -310 0
-103 -287 -311 0
-103 -288 -312 0
-103 -289 -313 0
-103 -290 -314 0
-103 -291 -315 0
-103 -292 -316 0
-104 -287 -317 0
-104 -288 -318 0
-104 -289 -319 0
-104 -290 -320 0
-104 -291 -321 0
-104 -292 -322 0
-105 -287 -323 0
-105 -288 -324 0
-105 -289 -325 0
-105 -290 -326 0
-105 -291 -327 0
-105 -292 -328 0
-106 -293 -299 0
-106 -294 -300 0
-106 -295 -301 0
-106 -296 -302 0
-106 -297 -303 0
-106 -298 -304 0
-107 -293 -305 0
-107 -294 -306 0
-107 -295 -307 0
-107 -296 -308 0
-107 -297 -309 0
-107 -298 -310 0
-108 -293 -311 0
-108 -294 -312 0
-108 -295 -313 0
-108 -296 -314 0
-108 -297 -315 0
-108 -298 -316 0
-109 -293 -317 0
-109 -294 -318 0
-109 -295 -319 0
-109 -296 -320 0
-109 -297 -321 0
-109 -298 -322 0
-110 -293 -323 0
-110 -294 -324 0
-110 -295 -325 0
-110 -296 -326 0
-110 -297 -327 0
-110 -298 -328 0
-111 -299 -305 0
-111 -300 -306 0
-111 -301 -307 0
-111 -302 -308 0
-111 -303 -309 0
-111 -304 -310 0
-112 -299 -311 0
-112 -300 -312 0
-112 -301 -313 0
-112 -302 -314 0
-112 -303 -315 0
-112 -304 -316 0
-113 -299 -317 0
-113 -300 -318 0
-113 -301 -319 0
-113 -302 -320 0
-113 -303 -321 0
-113 -304 -322 0
-114 -299 -323 0
-114 -300 -324 0
-114 -301 -325 0
-114 -302 -326 0
-114 -303 -327 0
-114 -304 -328 0
-115 -305 -311 0
-115 -306 -312 0
-115 -307 -313 0
-115 -308 -314 0
-115 -309 -315 0
-115 -310 -316 0
-116 -305 -317 0
-116 -306 -318 0
-116 -307 -319 0
-116 -308 -320 0
-116 -309 -321 0
-116 -310 -322 0
-117 -305 -323 0
-117 -306 -324 0
-117 -307 -325 0
-117 -308 -326 0
-117 -309 -327 0
-117 -310 -328 0
-118 -311 -317 0
-118 -312 -318 0
-118 -313 -319 0
-118 -314 -320 0
-118 -315 -321 0
-118 -316 -322 0
-119 -311 -323 0
-119 -312 -324 0
-119 -313 -325 0
-119 -314 -326 0
-119 -315 -327 0
-119 -316 -328 0
-120 -317 -323 0
-120 -318 -324 0
-120 -319 -325 0
-120 -320 -326 0
-120 -321 -327 0
-120 -322 -328 0
329 0
-201 217 0
217 -329 330 0
-201 -329 330 0
-330 -202 218 0
218 -330 331 0
-202 -330 331 0
-331 -203 219 0
219 -331 332 0
-203 -331 332 0
-332 -204 220 0
220 -332 333 0
-204 -332 333 0
-333 -205 221 0
221 -333 334 0
-205 -333 334 0
-334 -206 222 0
222 -334 335 0
-206 -334 335 0
-335 -207 223 0
223 -335 336 0
-207 -335 336 0
-336 -208 224 0
224 -336 337 0
-208 -336 337 0
-337 -209 225 0
225 -337 338 0
-209 -337 338 0
-338 -210 226 0
226 -338 339 0
-210 -338 339 0
-339 -211 227 0
227 -339 340 0
-211 -339 340 0
-340 -212 228 0
228 -340 341 0
-212 -340 341 0
-341 -213 229 0
229 -341 342 0
-213 -341 342 0
-342 -214 230 0
230 -342 343 0
-214 -342 343 0
-343 -215 231 0
231 -343 344 0
-215 -343 344 0
-344 -216 232 0
345 0
-185 201 0
201 -345 346 0
-185 -345 346 0
-346 -186 202 0
202 -346 347 0
-186 -346 347 0
-347 -187 203 0
203 -347 348 0
-187 -347 348 0
-348 -188 204 0
204 -348 349 0
-188 -348 349 0
-349 -189 205 0
205 -349 350 0
-189 -349 350 0
-350 -190 206 0
206 -350 351 0
-190 -350 351 0
-351 -191 207 0
207 -351 352 0
-191 -351 352 0
-352 -192 208 0
208 -352 353 0
-192 -352 353 0
-353 -193 209 0
209 -353 354 0
-193 -353 354 0
-354 -194 210 0
210 -354 355 0
-194 -354 355 0
-355 -195 211 0
211 -355 356 0
-195 -355 356 0
-356 -196 212 0
212 -356 357 0
-196 -356 357 0
-357 -197 213 0
213 -357 358 0
-197 -357 358 0
-358 -198 214 0
214 -358 359 0
-198 -358 359 0
-359 -199 215 0
215 -359 360 0
-199 -359 360 0
-360 -200 216 0
361 0
-169 185 0
185 -361 362 0
-169 -361 362 0
-362 -170 186 0
186 -362 363 0
-170 -362 363 0
-363 -171 187 0
187 -363 364 0
-171 -363 364 0
-364 -172 188 0
188 -364 365 0
-172 -364 365 0
-365 -173 189 0
189 -365 366 0
-173 -365 366 0
-366 -174 190 0
190 -366 367 0
-174 -366 367 0
-367 -175 191 0
191 -367 368 0
-175 -367 368 0
-368 -176 192 0
192 -368 369 0
-176 -368 369 0
-369 -177 193 0
193 -369 370 0
-177 -369 370 0
-370 -178 194 0
194 -370 371 0
-178 -370 371 0
-371 -179 195 0
195 -371 372 0
-179 -371 372 0
-372 -180 196 0
196 -372 373 0
-180 -372 373 0
-373 -181 197 0
197 -373 374 0
-181 -373 374 0
-374 -182 198 0
198 -374 375 0
-182 -374 375 0
-375 -183 199 0
199 -375 376 0
-183 -375 376 0
-376 -184 200 0
377 0
-153 169 0
169 -377 378 0
-153 -377 378 0
-378 -154 170 0
170 -378 379 0
-154 -378 379 0
-379 -155 171 0
171 -379 380 0
-155 -379 380 0
-380 -156 172 0
172 -380 381 0
-156 -380 381 0
-381 -157 173 0
173 -381 382 0
-157 -381 382 0
-382 -158 174 0
174 -382 383 0
-158 -382 383 0
-383 -159 175 0
175 -383 384 0
-159 -383 384 0
-384 -160 176 0
176 -384 385 0
-160 -384 385 0
-385 -161 177 0
177 -385 386 0
-161 -385 386 0
-386 -162 178 0
178 -386 387 0
-162 -386 387 0
-387 -163 179 0
179 -387 388 0
-163 -387 388 0
-388 -164 180 0
180 -388 389 0
-164 -388 389 0
-389 -165 181 0
181 -389 390 0
-165 -389 390 0
-390 -166 182 0
182 -390 391 0
-166 -390 391 0
-391 -167 183 0
183 -391 392 0
-167 -391 392 0
-392 -168 184 0
393 0
-137 153 0
153 -393 394 0
-137 -393 394 0
-394 -138 154 0
154 -394 395 0
-138 -394 395 0
-395 -139 155 0
155 -395 396 0
-139 -395 396 0
-396 -140 156 0
156 -396 397 0
-140 -396 397 0
-397 -141 157 0
157 -397 398 0
-141 -397 398 0
-398 -142 158 0
158 -398 399 0
-142 -398 399 0
-399 -143 159 0
159 -399 400 0
-143 -399 400 0
-400 -144 160 0
160 -400 401 0
-144 -400 401 0
-401 -145 161 0
161 -401 402 0
-145 -401 402 0
-402 -146 162 0
162 -402 403 0
-146 -402 403 0
-403 -147 163 0
163 -403 404 0
-147 -403 404 0
-404 -148 164 0
164 -404 405 0
-148 -404 405 0
-405 -149 165 0
165 -405 406 0
-149 -405 406 0
-406 -150 166 0
166 -406 407 0
-150 -406 407 0
-407 -151 167 0
167 -407 408 0
-151 -407 408 0
-408 -152 168 0
409 0
-121 137 0
137 -409 410 0
-121 -409 410 0
-410 -122 138 0
138 -410 411 0
-122 -410 411 0
-411 -123 139 0
139 -411 412 0
-123 -411 412 0
-412 -124 140 0
140 -412 413 0
-124 -412 413 0
-413 -125 141 0
141 -413 414 0
-125 -413 414 0
-414 -126 142 0
142 -414 415 0
-126 -414 415 0
-415 -127 143 0
143 -415 416 0
-127 -415 416 0
-416 -128 144 0
144 -416 417 0
-128 -416 417 0
-417 -129 145 0
145 -417 418 0
-129 -417 418 0
-418 -130 146 0
146 -418 419 0
-130 -418 419 0
-419 -131 147 0
147 -419 420 0
-131 -419 420 0
-420 -132 148 0
148 -420 421 0
-132 -420 421 0
-421 -133 149 0
149 -421 422 0
-133 -421 422 0
-422 -134 150 0
150 -422 423 0
-134 -422 423 0
-423 -135 151 0
151 -423 424 0
-135 -423 424 0
-424 -136 152 0
425 0
-237 238 0
238 -425 426 0
-237 -425 426 0
-426 -243 244 0
244 -426 427 0
-243 -426 427 0
-427 -249 250 0
250 -427 428 0
-249 -427 428 0
-428 -255 256 0
256 -428 429 0
-255 -428 429 0
-429 -261 262 0
262 -429 430 0
-261 -429 430 0
-430 -267 268 0
268 -430 431 0
-267 -430 431 0
-431 -273 274 0
274 -431 432 0
-273 -431 432 0
-432 -279 280 0
280 -432 433 0
-279 -432 433 0
-433 -285 286 0
286 -433 434 0
-285 -433 434 0
-434 -291 292 0
292 -434 435 0
-291 -434 435 0
-435 -297 298 0
298 -435 436 0
-297 -435 436 0
-436 -303 304 0
304 -436 437 0
-303 -436 437 0
-437 -309 310 0
310 -437 438 0
-309 -437 438 0
-438 -315 316 0
316 -438 439 0
-315 -438 439 0
-439 -321 322 0
322 -439 440 0
-321 -439 440 0
-440 -327 328 0
441 0
-236 237 0
237 -441 442 0
-236 -441 442 0
-442 -242 243 0
243 -442 443 0
-242 -442 443 0
-443 -248 249 0
249 -443 444 0
-248 -443 444 0
-444 -254 255 0
255 -444 445 0
-254 -444 445 0
-445 -260 261 0
261 -445 446 0
-260 -445 446 0
-446 -266 267 0
267 -446 447 0
-266 -446 447 0
-447 -272 273 0
273 -447 448 0
-272 -447 448 0
-448 -278 279 0
279 -448 449 0
-278 -448 449 0
-449 -284 285 0
285 -449 450 0
-284 -449 450 0
-450 -290 291 0
291 -450 451 0
-290 -450 451 0
-451 -296 297 0
297 -451 452 0
-296 -451 452 0
-452 -302 303 0
303 -452 453 0
-302 -452 453 0
-453 -308 309 0
309 -453 454 0
-308 -453 454 0
-454 -314 315 0
315 -454 455 0
-314 -454 455 0
-455 -320 321 0
321 -455 456 0
-320 -455 456 0
-456 -326 327 0
457 0
-235 236 0
236 -457 458 0
-235 -457 458 0
-458 -241 242 0
242 -458 459 0
-241 -458 459 0
-459 -247 248 0
248 -459 460 0
-247 -459 460 0
-460 -253 254 0
254 -460 461 0
-253 -460 461 0
-461 -259 260 0
260 -461 462 0
-259 -461 462 0
-462 -265 266 0
266 -462 463 0
-265 -462 463 0
-463 -271 272 0
272 -463 464 0
-271 -463 464 0
-464 -277 278 0
278 -464 465 0
-277 -464 465 0
-465 -283 284 0
284 -465 466 0
-283 -465 466 0
-466 -289 290 0
290 -466 467 0
-289 -466 467 0
-467 -295 296 0
296 -467 468 0
-295 -467 468 0
-468 -301 302 0
302 -468 469 0
-301 -468 469 0
-469 -307 308 0
308 -469 470 0
-307 -469 470 0
-470 -313 314 0
314 -470 471 0
-313 -470 471 0
-471 -319 320 0
320 -471 472 0
-319 -471 472 0
-472 -325 326 0
473 0
-234 235 0
235 -473 474 0
-234 -473 474 0
-474 -240 241 0
241 -474 475 0
-240 -474 475 0
-475 -246 247 0
247 -475 476 0
-246 -475 476 0
-476 -252 253 0
253 -476 477 0
-252 -476 477 0
-477 -258 259 0
259 -477 478 0
-258 -477 478 0
-478 -264 265 0
265 -478 479 0
-264 -478 479 0
-479 -270 271 0
271 -479 480 0
-270 -479 480 0
-480 -276 277 0
277 -480 481 0
-276 -480 481 0
-481 -282 283 0
283 -481 482 0
-282 -481 482 0
-482 -288 289 0
289 -482 483 0
-288 -482 483 0
-483 -294 295 0
295 -483 484 0
-294 -483 484 0
-484 -300 301 0
301 -484 485 0
-300 -484 485 0
-485 -306 307 0
307 -485 486 0
-306 -485 486 0
-486 -312 313 0
313 -486 487 0
-312 -486 487 0
-487 -318 319 0
319 -487 488 0
-318 -487 488 0
-488 -324 325 0
489 0
-233 234 0
234 -489 490 0
-233 -489 490 0
-490 -239 240 0
240 -490 491 0
-239 -490 491 0
-491 -245 246 0
246 -491 492 0
-245 -491 492 0
-492 -251 252 0
252 -492 493 0
-251 -492 493 0
-493 -257 258 0
258 -493 494 0
-257 -493 494 0
-494 -263 264 0
264 -494 495 0
-263 -494 495 0
-495 -269 270 0
270 -495 496 0
-269 -495 496 0
-496 -275 276 0
276 -496 497 0
-275 -496 497 0
-497 -281 282 0
282 -497 498 0
-281 -497 498 0
-498 -287 288 0
288 -498 499 0
-287 -498 499 0
-499 -293 294 0
294 -499 500 0
-293 -499 500 0
-500 -299 300 0
300 -500 501 0
-299 -500 501 0
-501 -305 306 0
306 -501 502 0
-305 -501 502 0
-502 -311 312 0
312 -502 503 0
-311 -502 503 0
-503 -317 318 0
318 -503 504 0
-317 -503 504 0
-504 -323 324 0
505 0
-121 122 0
122 -505 506 0
-121 -505 506 0
-506 -122 121 0
121 -506 507 0
-122 -506 507 0
-507 -137 138 0
138 -507 508 0
-137 -507 508 0
-508 -138 137 0
137 -508 509 0
-138 -508 509 0
-509 -153 154 0
154 -509 510 0
-153 -509 510 0
-510 -154 153 0
153 -510 511 0
-154 -510 511 0
-511 -169 170 0
170 -511 512 0
-169 -511 512 0
-512 -170 169 0
169 -512 513 0
-170 -512 513 0
-513 -185 186 0
186 -513 514 0
-185 -513 514 0
-514 -186 185 0
185 -514 515 0
-186 -514 515 0
-515 -201 202 0
202 -515 516 0
-201 -515 516 0
-516 -202 201 0
201 -516 517 0
-202 -516 517 0
-517 -217 218 0
218 -517 518 0
-217 -517 518 0
-518 -218 217 0
217 -518 519 0
-218 -518 519 0
-519 -233 239 0
239 -519 520 0
-233 -519 520 0
-520 -239 233 0
233 -520 521 0
-239 -520 521 0
-521 -234 240 0
240 -521 522 0
-234 -521 522 0
-522 -240 234 0
234 -522 523 0
-240 -522 523 0
-523 -235 241 0
241 -523 524 0
-235 -523 524 0
-524 -241 235 0
235 -524 525 0
-241 -524 525 0
-525 -236 242 0
242 -525 526 0
-236 -525 526 0
-526 -242 236 0
236 -526 527 0
-242 -526 527 0
-527 -237 243 0
243 -527 528 0
-237 -527 528 0
-528 -243 237 0
237 -528 529 0
-243 -528 529 0
-529 -238 244 0
244 -529 530 0
-238 -529 530 0
-530 -244 238 0
238 -530 531 0
-244 -530 531 0
-531 -2 16 0
532 0
-122 123 0
123 -532 533 0
-122 -532 533 0
-533 -123 122 0
122 -533 534 0
-123 -533 534 0
-534 -138 139 0
139 -534 535 0
-138 -534 535 0
-535 -139 138 0
138 -535 536 0
-139 -535 536 0
-536 -154 155 0
155 -536 537 0
-154 -536 537 0
-537 -155 154 0
154 -537 538 0
-155 -537 538 0
-538 -170 171 0
171 -538 539 0
-170 -538 539 0
-539 -171 170 0
170 -539 540 0
-171 -539 540 0
-540 -186 187 0
187 -540 541 0
-186 -540 541 0
-541 -187 186 0
186 -541 542 0
-187 -541 542 0
-542 -202 203 0
203 -542 543 0
-202 -542 543 0
-543 -203 202 0
202 -543 544 0
-203 -543 544 0
-544 -218 219 0
219 -544 545 0
-218 -544 545 0
-545 -219 218 0
218 -545 546 0
-219 -545 546 0
-546 -239 245 0
245 -546 547 0
-239 -546 547 0
-547 -245 239 0
239 -547 548 0
-245 -547 548 0
-548 -240 246 0
246 -548 549 0
-240 -548 549 0
-549 -246 240 0
240 -549 550 0
-246 -549 550 0
-550 -241 247 0
247 -550 551 0
-241 -550 551 0
-551 -247 241 0
241 -551 552 0
-247 -551 552 0
-552 -242 248 0
248 -552 553 0
-242 -552 553 0
-553 -248 242 0
242 -553 554 0
-248 -553 554 0
-554 -243 249 0
249 -554 555 0
-243 -554 555 0
-555 -249 243 0
243 -555 556 0
-249 -555 556 0
-556 -244 250 0
250 -556 557 0
-244 -556 557 0
-557 -250 244 0
244 -557 558 0
-250 -557 558 0
-558 -1 2 0
559 0
-123 124 0
124 -559 560 0
-123 -559 560 0
-560 -124 123 0
123 -560 561 0
-124 -560 561 0
-561 -139 140 0
140 -561 562 0
-139 -561 562 0
-562 -140 139 0
139 -562 563 0
-140 -562 563 0
-563 -155 156 0
156 -563 564 0
-155 -563 564 0
-564 -156 155 0
155 -564 565 0
-156 -564 565 0
-565 -171 172 0
172 -565 566 0
-171 -565 566 0
-566 -172 171 0
171 -566 567 0
-172 -566 567 0
-567 -187 188 0
188 -567 568 0
-187 -567 568 0
-568 -188 187 0
187 -568 569 0
-188 -568 569 0
-569 -203 204 0
204 -569 570 0
-203 -569 570 0
-570 -204 203 0
203 -570 571 0
-204 -570 571 0
-571 -219 220 0
220 -571 572 0
-219 -571 572 0
-572 -220 219 0
219 -572 573 0
-220 -572 573 0
-573 -245 251 0
251 -573 574 0
-245 -573 574 0
-574 -251 245 0
245 -574 575 0
-251 -574 575 0
-575 -246 252 0
252 -575 576 0
-246 -575 576 0
-576 -252 246 0
246 -576 577 0
-252 -576 577 0
-577 -247 253 0
253 -577 578 0
-247 -577 578 0
-578 -253 247 0
247 -578 579 0
-253 -578 579 0
-579 -248 254 0
254 -579 580 0
-248 -579 580 0
-580 -254 248 0
248 -580 581 0
-254 -580 581 0
-581 -249 255 0
255 -581 582 0
-249 -581 582 0
-582 -255 249 0
249 -582 583 0
-255 -582 583 0
-583 -250 256 0
256 -583 584 0
-250 -583 584 0
-584 -256 250 0
250 -584 585 0
-256 -584 585 0
-585 -2 3 0
586 0
-124 125 0
125 -586 587 0
-124 -586 587 0
-587 -125 124 0
124 -587 588 0
-125 -587 588 0
-588 -140 141 0
141 -588 589 0
-140 -588 589 0
-589 -141 140 0
140 -589 590 0
-141 -589 590 0
-590 -156 157 0
157 -590 591 0
-156 -590 591 0
-591 -157 156 0
156 -591 592 0
-157 -591 592 0
-592 -172 173 0
173 -592 593 0
-172 -592 593 0
-593 -173 172 0
172 -593 594 0
-173 -593 594 0
-594 -188 189 0
189 -594 595 0
-188 -594 595 0
-595 -189 188 0
188 -595 596 0
-189 -595 596 0
-596 -204 205 0
205 -596 597 0
-204 -596 597 0
-597 -205 204 0
204 -597 598 0
-205 -597 598 0
-598 -220 221 0
221 -598 599 0
-220 -598 599 0
-599 -221 220 0
220 -599 600 0
-221 -599 600 0
-600 -251 257 0
257 -600 601 0
-251 -600 601 0
-601 -257 251 0
251 -601 602 0
-257 -601 602 0
-602 -252 258 0
258 -602 603 0
-252 -602 603 0
-603 -258 252 0
252 -603 604 0
-258 -603 604 0
-604 -253 259 0
259 -604 605 0
-253 -604 605 0
-605 -259 253 0
253 -605 606 0
-259 -605 606 0
-606 -254 260 0
260 -606 607 0
-254 -606 607 0
-607 -260 254 0
254 -607 608 0
-260 -607 608 0
-608 -255 261 0
261 -608 609 0
-255 -608 609 0
-609 -261 255 0
255 -609 610 0
-261 -609 610 0
-610 -256 262 0
262 -610 611 0
-256 -610 611 0
-611 -262 256 0
256 -611 612 0
-262 -611 612 0
-612 -3 4 0
613 0
-125 126 0
126 -613 614 0
-125 -613 614 0
-614 -126 125 0
125 -614 615 0
-126 -614 615 0
-615 -141 142 0
142 -615 616 0
-141 -615 616 0
-616 -142 141 0
141 -616 617 0
-142 -616 617 0
-617 -157 158 0
158 -617 618 0
-157 -617 618 0
-618 -158 157 0
157 -618 619 0
-158 -618 619 0
-619 -173 174 0
174 -619 620 0
-173 -619 620 0
-620 -174 173 0
173 -620 621 0
-174 -620 621 0
-621 -189 190 0
190 -621 622 0
-189 -621 622 0
-622 -190 189 0
189 -622 623 0
-190 -622 623 0
-623 -205 206 0
206 -623 624 0
-205 -623 624 0
-624 -206 205 0
205 -624 625 0
-206 -624 625 0
-625 -221 222 0
222 -625 626 0
-221 -625 626 0
-626 -222 221 0
221 -626 627 0
-222 -626 627 0
-627 -257 263 0
263 -627 628 0
-257 -627 628 0
-628 -263 257 0
257 -628 629 0
-263 -628 629 0
-629 -258 264 0
264 -629 630 0
-258 -629 630 0
-630 -264 258 0
258 -630 631 0
-264 -630 631 0
-631 -259 265 0
265 -631 632 0
-259 -631 632 0
-632 -265 259 0
259 -632 633 0
-265 -632 633 0
-633 -260 266 0
266 -633 634 0
-260 -633 634 0
-634 -266 260 0
260 -634 635 0
-266 -634 635 0
-635 -261 267 0
267 -635 636 0
-261 -635 636 0
-636 -267 261 0
261 -636 637 0
-267 -636 637 0
-637 -262 268 0
268 -637 638 0
-262 -637 638 0
-638 -268 262 0
262 -638 639 0
-268 -638 639 0
-639 -4 5 0
640 0
-126 127 0
127 -640 641 0
-126 -640 641 0
-641 -127 126 0
126 -641 642 0
-127 -641 642 0
-642 -142 143 0
143 -642 643 0
-142 -642 643 0
-643 -143 142 0
142 -643 644 0
-143 -643 644 0
-644 -158 159 0
159 -644 645 0
-158 -644 645 0
-645 -159 158 0
158 -645 646 0
-159 -645 646 0
-646 -174 175 0
175 -646 647 0
-174 -646 647 0
-647 -175 174 0
174 -647 648 0
-175 -647 648 0
-648 -190 191 0
191 -648 649 0
-190 -648 649 0
-649 -191 190 0
190 -649 650 0
-191 -649 650 0
-650 -206 207 0
207 -650 651 0
-206 -650 651 0
-651 -207 206 0
206 -651 652 0
-207 -651 652 0
-652 -222 223 0
223 -652 653 0
-222 -652 653 0
-653 -223 222 0
222 -653 654 0
-223 -653 654 0
-654 -263 269 0
269 -654 655 0
-263 -654 655 0
-655 -269 263 0
263 -655 656 0
-269 -655 656 0
-656 -264 270 0
270 -656 657 0
-264 -656 657 0
-657 -270 264 0
264 -657 658 0
-270 -657 658 0
-658 -265 271 0
271 -658 659 0
-265 -658 659 0
-659 -271 265 0
265 -659 660 0
-271 -659 660 0
-660 -266 272 0
272 -660 661 0
-266 -660 661 0
-661 -272 266 0
266 -661 662 0
-272 -661 662 0
-662 -267 273 0
273 -662 663 0
-267 -662 663 0
-663 -273 267 0
267 -663 664 0
-273 -663 664 0
-664 -268 274 0
274 -664 665 0
-268 -664 665 0
-665 -274 268 0
268 -665 666 0
-274 -665 666 0
-666 -5 6 0
667 0
-127 128 0
128 -667 668 0
-127 -667 668 0
-668 -128 127 0
127 -668 669 0
-128 -668 669 0
-669 -143 144 0
144 -669 670 0
-143 -669 670 0
-670 -144 143 0
143 -670 671 0
-144 -670 671 0
-671 -159 160 0
160 -671 672 0
-159 -671 672 0
-672 -160 159 0
159 -672 673 0
-160 -672 673 0
-673 -175 176 0
176 -673 674 0
-175 -673 674 0
-674 -176 175 0
175 -674 675 0
-176 -674 675 0
-675 -191 192 0
192 -675 676 0
-191 -675 676 0
-676 -192 191 0
191 -676 677 0
-192 -676 677 0
-677 -207 208 0
208 -677 678 0
-207 -677 678 0
-678 -208 207 0
207 -678 679 0
-208 -678 679 0
-679 -223 224 0
224 -679 680 0
-223 -679 680 0
-680 -224 223 0
223 -680 681 0
-224 -680 681 0
-681 -269 275 0
275 -681 682 0
-269 -681 682 0
-682 -275 269 0
269 -682 683 0
-275 -682 683 0
-683 -270 276 0
276 -683 684 0
-270 -683 684 0
-684 -276 270 0
270 -684 685 0
-276 -684 685 0
-685 -271 277 0
277 -685 686 0
-271 -685 686 0
-686 -277 271 0
271 -686 687 0
-277 -686 687 0
-687 -272 278 0
278 -687 688 0
-272 -687 688 0
-688 -278 272 0
272 -688 689 0
-278 -688 689 0
-689 -273 279 0
279 -689 690 0
-273 -689 690 0
-690 -279 273 0
273 -690 691 0
-279 -690 691 0
-691 -274 280 0
280 -691 692 0
-274 -691 692 0
-692 -280 274 0
274 -692 693 0
-280 -692 693 0
-693 -6 7 0
694 0
-128 129 0
129 -694 695 0
-128 -694 695 0
-695 -129 128 0
128 -695 696 0
-129 -695 696 0
-696 -144 145 0
145 -696 697 0
-144 -696 697 0
-697 -145 144 0
144 -697 698 0
-145 -697 698 0
-698 -160 161 0
161 -698 699 0
-160 -698 699 0
-699 -161 160 0
160 -699 700 0
-161 -699 700 0
-700 -176 177 0
177 -700 701 0
-176 -700 701 0
-701 -177 176 0
176 -701 702 0
-177 -701 702 0
-702 -192 193 0
193 -702 703 0
-192 -702 703 0
-703 -193 192 0
192 -703 704 0
-193 -703 704 0
-704 -208 209 0
209 -704 705 0
-208 -704 705 0
-705 -209 208 0
208 -705 706 0
-209 -705 706 0
-706 -224 225 0
225 -706 707 0
-224 -706 707 0
-707 -225 224 0
224 -707 708 0
-225 -707 708 0
-708 -275 281 0
281 -708 709 0
-275 -708 709 0
-709 -281 275 0
275 -709 710 0
-281 -709 710 0
-710 -276 282 0
282 -710 711 0
-276 -710 711 0
-711 -282 276 0
276 -711 712 0
-282 -711 712 0
-712 -277 283 0
283 -712 713 0
-277 -712 713 0
-713 -283 277 0
277 -713 714 0
-283 -713 714 0
-714 -278 284 0
284 -714 715 0
-278 -714 715 0
-715 -284 278 0
278 -715 716 0
-284 -715 716 0
-716 -279 285 0
285 -716 717 0
-279 -716 717 0
-717 -285 279 0
279 -717 718 0
-285 -717 718 0
-718 -280 286 0
286 -718 719 0
-280 -718 719 0
-719 -286 280 0
280 -719 720 0
-286 -719 720 0
-720 -7 8 0
721 0
-129 130 0
130 -721 722 0
-129 -721 722 0
-722 -130 129 0
129 -722 723 0
-130 -722 723 0
-723 -145 146 0
146 -723 724 0
-145 -723 724 0
-724 -146 145 0
145 -724 725 0
-146 -724 725 0
-725 -161 162 0
162 -725 726 0
-161 -725 726 0
-726 -162 161 0
161 -726 727 0
-162 -726 727 0
-727 -177 178 0
178 -727 728 0
-177 -727 728 0
-728 -178 177 0
177 -728 729 0
-178 -728 729 0
-729 -193 194 0
194 -729 730 0
-193 -729 730 0
-730 -194 193 0
193 -730 731 0
-194 -730 731 0
-731 -209 210 0
210 -731 732 0
-209 -731 732 0
-732 -210 209 0
209 -732 733 0
-210 -732 733 0
-733 -225 226 0
226 -733 734 0
-225 -733 734 0
-734 -226 225 0
225 -734 735 0
-226 -734 735 0
-735 -281 287 0
287 -735 736 0
-281 -735 736 0
-736 -287 281 0
281 -736 737 0
-287 -736 737 0
-737 -282 288 0
288 -737 738 0
-282 -737 738 0
-738 -288 282 0
282 -738 739 0
-288 -738 739 0
-739 -283 289 0
289 -739 740 0
-283 -739 740 0
-740 -289 283 0
283 -740 741 0
-289 -740 741 0
-741 -284 290 0
290 -741 742 0
-284 -741 742 0
-742 -290 284 0
284 -742 743 0
-290 -742 743 0
-743 -285 291 0
291 -743 744 0
-285 -743 744 0
-744 -291 285 0
285 -744 745 0
-291 -744 745 0
-745 -286 292 0
292 -745 746 0
-286 -745 746 0
-746 -292 286 0
286 -746 747 0
-292 -746 747 0
-747 -8 9 0
748 0
-130 131 0
131 -748 749 0
-130 -748 749 0
-749 -131 130 0
130 -749 750 0
-131 -749 750 0
-750 -146 147 0
147 -750 751 0
-146 -750 751 0
-751 -147 146 0
146 -751 752 0
-147 -751 752 0
-752 -162 163 0
163 -752 753 0
-162 -752 753 0
-753 -163 162 0
162 -753 754 0
-163 -753 754 0
-754 -178 179 0
179 -754 755 0
-178 -754 755 0
-755 -179 178 0
178 -755 756 0
-179 -755 756 0
-756 -194 195 0
195 -756 757 0
-194 -756 757 0
-757 -195 194 0
194 -757 758 0
-195 -757 758 0
-758 -210 211 0
211 -758 759 0
-210 -758 759 0
-759 -211 210 0
210 -759 760 0
-211 -759 760 0
-760 -226 227 0
227 -760 761 0
-226 -760 761 0
-761 -227 226 0
226 -761 762 0
-227 -761 762 0
-762 -287 293 0
293 -762 763 0
-287 -762 763 0
-763 -293 287 0
287 -763 764 0
-293 -763 764 0
-764 -288 294 0
294 -764 765 0
-288 -764 765 0
-765 -294 288 0
288 -765 766 0
-294 -765 766 0
-766 -289 295 0
295 -766 767 0
-289 -766 767 0
-767 -295 289 0
289 -767 768 0
-295 -767 768 0
-768 -290 296 0
296 -768 769 0
-290 -768 769 0
-769 -296 290 0
290 -769 770 0
-296 -769 770 0
-770 -291 297 0
297 -770 771 0
-291 -770 771 0
-771 -297 291 0
291 -771 772 0
-297 -771 772 0
-772 -292 298 0
298 -772 773 0
-292 -772 773 0
-773 -298 292 0
292 -773 774 0
-298 -773 774 0
-774 -9 10 0
775 0
-131 132 0
132 -775 776 0
-131 -775 776 0
-776 -132 131 0
131 -776 777 0
-132 -776 777 0
-777 -147 148 0
148 -777 778 0
-147 -777 778 0
-778 -148 147 0
147 -778 779 0
-148 -778 779 0
-779 -163 164 0
164 -779 780 0
-163 -779 780 0
-780 -164 163 0
163 -780 781 0
-164 -780 781 0
-781 -179 180 0
180 -781 782 0
-179 -781 782 0
-782 -180 179 0
179 -782 783 0
-180 -782 783 0
-783 -195 196 0
196 -783 784 0
-195 -783 784 0
-784 -196 195 0
195 -784 785 0
-196 -784 785 0
-785 -211 212 0
212 -785 786 0
-211 -785 786 0
-786 -212 211 0
211 -786 787 0
-212 -786 787 0
-787 -227 228 0
228 -787 788 0
-227 -787 788 0
-788 -228 227 0
227 -788 789 0
-228 -788 789 0
-789 -293 299 0
299 -789 790 0
-293 -789 790 0
-790 -299 293 0
293 -790 791 0
-299 -790 791 0
-791 -294 300 0
300 -791 792 0
-294 -791 792 0
-792 -300 294 0
294 -792 793 0
-300 -792 793 0
-793 -295 301 0
301 -793 794 0
-295 -793 794 0
-794 -301 295 0
295 -794 795 0
-301 -794 795 0
-795 -296 302 0
302 -795 796 0
-296 -795 796 0
-796 -302 296 0
296 -796 797 0
-302 -796 797 0
-797 -297 303 0
303 -797 798 0
-297 -797 798 0
-798 -303 297 0
297 -798 799 0
-303 -798 799 0
-799 -298 304 0
304 -799 800 0
-298 -799 800 0
-800 -304 298 0
298 -800 801 0
-304 -800 801 0
-801 -10 11 0
802 0
-132 133 0
133 -802 803 0
-132 -802 803 0
-803 -133 132 0
132 -803 804 0
-133 -803 804 0
-804 -148 149 0
149 -804 805 0
-148 -804 805 0
-805 -149 148 0
148 -805 806 0
-149 -805 806 0
-806 -164 165 0
165 -806 807 0
-164 -806 807 0
-807 -165 164 0
164 -807 808 0
-165 -807 808 0
-808 -180 181 0
181 -808 809 0
-180 -808 809 0
-809 -181 180 0
180 -809 810 0
-181 -809 810 0
-810 -196 197 0
197 -810 811 0
-196 -810 811 0
-811 -197 196 0
196 -811 812 0
-197 -811 812 0
-812 -212 213 0
213 -812 813 0
-212 -812 813 0
-813 -213 212 0
212 -813 814 0
-213 -813 814 0
-814 -228 229 0
229 -814 815 0
-228 -814 815 0
-815 -229 228 0
228 -815 816 0
-229 -815 816 0
-816 -299 305 0
305 -816 817 0
-299 -816 817 0
-817 -305 299 0
299 -817 818 0
-305 -817 818 0
-818 -300 306 0
306 -818 819 0
-300 -818 819 0
-819 -306 300 0
300 -819 820 0
-306 -819 820 0
-820 -301 307 0
307 -820 821 0
-301 -820 821 0
-821 -307 301 0
301 -821 822 0
-307 -821 822 0
-822 -302 308 0
308 -822 823 0
-302 -822 823 0
-823 -308 302 0
302 -823 824 0
-308 -823 824 0
-824 -303 309 0
309 -824 825 0
-303 -824 825 0
-825 -309 303 0
303 -825 826 0
-309 -825 826 0
-826 -304 310 0
310 -826 827 0
-304 -826 827 0
-827 -310 304 0
304 -827 828 0
-310 -827 828 0
-828 -11 12 0
829 0
-133 134 0
134 -829 830 0
-133 -829 830 0
-830 -134 133 0
133 -830 831 0
-134 -830 831 0
-831 -149 150 0
150 -831 832 0
-149 -831 832 0
-832 -150 149 0
149 -832 833 0
-150 -832 833 0
-833 -165 166 0
166 -833 834 0
-165 -833 834 0
-834 -166 165 0
165 -834 835 0
-166 -834 835 0
-835 -181 182 0
182 -835 836 0
-181 -835 836 0
-836 -182 181 0
181 -836 837 0
-182 -836 837 0
-837 -197 198 0
198 -837 838 0
-197 -837 838 0
-838 -198 197 0
197 -838 839 0
-198 -838 839 0
-839 -213 214 0
214 -839 840 0
-213 -839 840 0
-840 -214 213 0
213 -840 841 0
-214 -840 841 0
-841 -229 230 0
230 -841 842 0
-229 -841 842 0
-842 -230 229 0
229 -842 843 0
-230 -842 843 0
-843 -305 311 0
311 -843 844 0
-305 -843 844 0
-844 -311 305 0
305 -844 845 0
-311 -844 845 0
-845 -306 312 0
312 -845 846 0
-306 -845 846 0
-846 -312 306 0
306 -846 847 0
-312 -846 847 0
-847 -307 313 0
313 -847 848 0
-307 -847 848 0
-848 -313 307 0
307 -848 849 0
-313 -848 849 0
-849 -308 314 0
314 -849 850 0
-308 -849 850 0
-850 -314 308 0
308 -850 851 0
-314 -850 851 0
-851 -309 315 0
315 -851 852 0
-309 -851 852 0
-852 -315 309 0
309 -852 853 0
-315 -852 853 0
-853 -310 316 0
316 -853 854 0
-310 -853 854 0
-854 -316 310 0
310 -854 855 0
-316 -854 855 0
-855 -12 13 0
856 0
-134 135 0
135 -856 857 0
-134 -856 857 0
-857 -135 134 0
134 -857 858 0
-135 -857 858 0
-858 -150 151 0
151 -858 859 0
-150 -858 859 0
-859 -151 150 0
150 -859 860 0
-151 -859 860 0
-860 -166 167 0
167 -860 861 0
-166 -860 861 0
-861 -167 166 0
166 -861 862 0
-167 -861 862 0
-862 -182 183 0
183 -862 863 0
-182 -862 863 0
-863 -183 182 0
182 -863 864 0
-183 -863 864 0
-864 -198 199 0
199 -864 865 0
-198 -864 865 0
-865 -199 198 0
198 -865 866 0
-199 -865 866 0
-866 -214 215 0
215 -866 867 0
-214 -866 867 0
-867 -215 214 0
214 -867 868 0
-215 -867 868 0
-868 -230 231 0
231 -868 869 0
-230 -868 869 0
-869 -231 230 0
230 -869 870 0
-231 -869 870 0
-870 -311 317 0
317 -870 871 0
-311 -870 871 0
-871 -317 311 0
311 -871 872 0
-317 -871 872 0
-872 -312 318 0
318 -872 873 0
-312 -872 873 0
-873 -318 312 0
312 -873 874 0
-318 -873 874 0
-874 -313 319 0
319 -874 875 0
-313 -874 875 0
-875 -319 313 0
313 -875 876 0
-319 -875 876 0
-876 -314 320 0
320 -876 877 0
-314 -876 877 0
-877 -320 314 0
314 -877 878 0
-320 -877 878 0
-878 -315 321 0
321 -878 879 0
-315 -878 879 0
-879 -321 315 0
315 -879 880 0
-321 -879 880 0
-880 -316 322 0
322 -880 881 0
-316 -880 881 0
-881 -322 316 0
316 -881 882 0
-322 -881 882 0
-882 -13 14 0
883 0
-135 136 0
136 -883 884 0
-135 -883 884 0
-884 -136 135 0
135 -884 885 0
-136 -884 885 0
-885 -151 152 0
152 -885 886 0
-151 -885 886 0
-886 -152 151 0
151 -886 887 0
-152 -886 887 0
-887 -167 168 0
168 -887 888 0
-167 -887 888 0
-888 -168 167 0
167 -888 889 0
-168 -888 889 0
-889 -183 184 0
184 -889 890 0
-183 -889 890 0
-890 -184 183 0
183 -890 891 0
-184 -890 891 0
-891 -199 200 0
200 -891 892 0
-199 -891 892 0
-892 -200 199 0
199 -892 893 0
-200 -892 893 0
-893 -215 216 0
216 -893 894 0
-215 -893 894 0
-894 -216 215 0
215 -894 895 0
-216 -894 895 0
-895 -231 232 0
232 -895 896 0
-231 -895 896 0
-896 -232 231 0
231 -896 897 0
-232 -896 897 0
-897 -317 323 0
323 -897 898 0
-317 -897 898 0
-898 -323 317 0
317 -898 899 0
-323 -898 899 0
-899 -318 324 0
324 -899 900 0
-318 -899 900 0
-900 -324 318 0
318 -900 901 0
-324 -900 901 0
-901 -319 325 0
325 -901 902 0
-319 -901 902 0
-902 -325 319 0
319 -902 903 0
-325 -902 903 0
-903 -320 326 0
326 -903 904 0
-320 -903 904 0
-904 -326 320 0
320 -904 905 0
-326 -904 905 0
-905 -321 327 0
327 -905 906 0
-321 -905 906 0
-906 -327 321 0
321 -906 907 0
-327 -906 907 0
-907 -322 328 0
328 -907 908 0
-322 -907 908 0
-908 -328 322 0
322 -908 909 0
-328 -908 909 0
-909 -14 15 0
